clear
# --------------------- VARIABLES-------------------------
variable        NSTEPS          equal 200000
variable        THERMO_FREQ     equal 10
variable        DUMP_FREQ       equal 10
variable        TEMP            equal 150.000000
variable        PRES            equal 1.000000
variable        TAU_T           equal 0.100000
variable        TAU_P           equal 0.500000
variable        LAMBDA          equal 6.2500000000e-01
variable        INV_LAMBDA      equal 3.7500000000e-01
# ---------------------- INITIALIZAITION ------------------
units           metal
boundary        p p p
atom_style      atomic
# --------------------- ATOM DEFINITION ------------------
box             tilt large
read_data       conf.lmp
change_box      all triclinic
mass            1 16.000000
mass            2 2.000000
# --------------------- FORCE FIELDS ---------------------
variable        EPSILON equal 0.020000
variable        INV_EPSILON equal -${EPSILON}
pair_style      hybrid/overlay deepmd graph.pb lj/cut/soft 1.000000 0.500000 6.000000
pair_coeff      * * deepmd
pair_coeff      1 1 lj/cut/soft ${EPSILON} 3.150000 0.500000
pair_coeff      1 2 lj/cut/soft ${EPSILON} 0.987000 0.500000
pair_coeff      2 2 lj/cut/soft ${EPSILON} 0.987000 0.500000
fix             tot_pot all adapt/fep 0 pair lj/cut/soft epsilon * * v_INV_LAMBDA scale yes
compute         e_diff all fep ${TEMP} pair lj/cut/soft epsilon * * v_INV_EPSILON
group           type_1 type 1
group           type_2 type 2
fix             l_spring_1 type_1 spring/self 3.0000000000e+00
fix_modify      l_spring_1 energy yes
fix             l_spring_2 type_2 spring/self 3.7500000000e-01
fix_modify      l_spring_2 energy yes
variable        l_spring equal f_l_spring_1+f_l_spring_2
# --------------------- MD SETTINGS ----------------------
neighbor        1.0 bin
timestep        0.0005
thermo          ${THERMO_FREQ}
compute         allmsd all msd
thermo_style    custom step ke pe etotal enthalpy temp press vol v_l_spring c_e_diff[1] c_allmsd[*]
thermo_modify   format 9 %.16e
thermo_modify   format 10 %.16e
# dump            1 all custom ${DUMP_FREQ} dump.hti id type x y z vx vy vz
fix             1 all nve
fix             2 all langevin ${TEMP} ${TEMP} ${TAU_T} 7858 zero yes
# --------------------- INITIALIZE -----------------------
velocity        all create ${TEMP} 7858
fix             fc all recenter INIT INIT INIT
fix             fm all momentum 1 linear 1 1 1
velocity        all zero linear
# --------------------- RUN ------------------------------
run             ${NSTEPS}
write_data      out.lmp
