# LAMMPS data file written by OVITO
768 atoms
2 atom types
0.0 19.7209797 xlo xhi
0.0 19.7209797 ylo yhi
0.0 19.7209797 zlo zhi

Atoms # atomic

1 1 5.0912042 3.4645772 7.4271097
2 1 7.3636842 5.7898979 9.4112587
3 1 7.89947 12.0872154 6.304698
4 1 8.2743778 18.2144356 0.6564254
5 1 12.3912201 4.4163528 7.1388755
6 1 15.6868601 9.436245 15.4259892
7 1 18.2575703 12.7882891 4.1756778
8 1 15.2526112 14.6721211 15.4893341
9 1 6.3607903 13.2523747 4.3816595
10 1 1.8232372 11.452116 16.7243099
11 1 2.9090364 8.6154518 9.9669448
12 1 18.4305325 0.694829 18.6133785
13 1 11.6823187 13.3513308 7.085999
14 1 11.0292892 7.8569976 14.3707295
15 1 12.1279755 2.6782525 2.5303869
16 1 11.4973641 5.5520726 11.6685028
17 1 10.6176586 15.478983 5.6188102
18 1 10.5288172 18.4707852 9.2401028
19 1 7.6241784 8.7706166 19.3528786
20 1 12.1489487 7.6116443 10.2650604
21 1 1.7367401 17.9371014 6.7900682
22 1 3.8788806 19.2456951 14.2750769
23 1 3.2939668 14.0078955 1.5201556
24 1 18.4617329 8.3016443 9.5739622
25 1 17.4704914 18.1946335 9.843258
26 1 15.6492081 16.2490215 0.1917231
27 1 19.0799065 12.2750435 14.5609484
28 1 0.5483506 16.581604 8.767992
29 1 9.272892 15.7146569 11.5612946
30 1 11.3723993 19.1192226 16.9170456
31 1 7.6882367 8.9489546 2.2406981
32 1 6.0917778 11.2175427 2.6145764
33 1 10.1819029 10.5129805 5.3387294
34 1 2.1059039 0.8716072 18.8774282
35 1 3.0129521 2.1427889 1.1383512
36 1 8.5206194 17.4886418 3.4166551
37 1 15.4039593 10.4698792 9.7167273
38 1 15.6486206 7.4554677 3.2083585
39 1 12.5547838 16.6084538 3.7356239
40 1 17.3623505 15.8752766 2.0954633
41 1 2.4482732 4.553917 2.6495981
42 1 10.1550446 8.7702437 17.9025422
43 1 12.0484076 2.9884208 9.3211699
44 1 9.5040245 2.5684643 18.8043823
45 1 1.283869 13.9781314 9.0855179
46 1 17.4037609 6.2139678 17.3617497
47 1 18.1550579 15.5073214 7.2748318
48 1 9.7896652 3.8124779 16.4448223
49 1 3.7908831 1.1801338 16.5377178
50 1 12.0951366 1.8202176 19.4254017
51 1 5.1249771 15.0037432 14.1274405
52 1 5.7248917 12.5495558 0.2867997
53 1 19.1553326 4.1750026 12.6588526
54 1 11.5790606 19.4633179 2.1838579
55 1 14.6758127 12.9049274 7.5396915
56 1 16.7087364 11.3433666 5.8924804
57 1 0.9480938 6.7607289 9.6100436
58 1 7.6336227 10.4259815 14.6341963
59 1 8.0241547 16.9039842 16.0868988
60 1 2.6207881 15.6024409 19.2445126
61 1 10.7088948 9.2224989 7.7023974
62 1 12.8728744 7.4882064 1.0515459
63 1 14.6073408 14.936677 10.9156218
64 1 11.2070494 16.7635937 1.4369567
65 1 15.5113058 18.9069482 7.6209235
66 1 17.7510872 2.688946 14.7827511
67 1 3.6294108 10.5242596 8.1576586
68 1 1.3836327 13.9723682 15.1810093
69 1 9.7085018 2.4471233 3.8305583
70 1 13.5983477 3.7399447 11.5393591
71 1 13.158556 12.1769953 19.4012547
72 1 9.7207937 15.7441235 14.2099438
73 1 18.865326 0.4632857 1.835897
74 1 3.7142854 4.8582784 13.6035042
75 1 7.4194393 1.1799746 0.0386311
76 1 6.1338544 14.8126812 8.0449162
77 1 10.7516928 6.2892552 17.7579232
78 1 14.6446333 3.0695198 6.9419862
79 1 14.3217363 8.3503266 13.4200077
80 1 16.618393 13.2219811 2.0530016
81 1 1.7281535 0.4757921 12.0352554
82 1 5.2260013 19.5106774 4.039237
83 1 1.929291 6.8351083 12.6419497
84 1 9.6832018 19.4155712 5.0237722
85 1 9.8694534 2.0109367 10.3605099
86 1 6.9875302 4.7700877 4.323082
87 1 10.1838579 9.468195 2.9490174
88 1 9.3920832 14.6978531 0.991628
89 1 12.5950632 11.9024448 4.7732964
90 1 13.0448475 5.9823008 18.6182041
91 1 15.5953446 10.7348223 12.4802571
92 1 12.5243635 11.9634028 14.9982204
93 1 15.3460837 1.6809607 15.7309246
94 1 18.5192242 3.2699876 17.3723335
95 1 16.969183 14.2328806 11.7015257
96 1 18.7777462 15.8881036 19.4310875
97 1 5.2816134 6.9969368 10.7757845
98 1 7.7242694 4.0655026 7.5005718
99 1 7.3666277 1.4365933 8.8060189
100 1 0.2306379 16.7403488 15.927845
101 1 11.1613627 7.3919292 4.2432604
102 1 12.9568578 11.1770659 12.4884129
103 1 12.9855976 15.6949177 19.3593445
104 1 13.0617628 19.0414181 11.7726002
105 1 9.9612142 4.7443185 2.1579268
106 1 2.083653 4.8601934 18.8229218
107 1 11.3379755 9.720932 0.5902283
108 1 7.4498091 13.2010346 18.2214775
109 1 16.8257885 4.8989692 6.0129719
110 1 16.101963 0.3349759 3.1447485
111 1 4.0356879 9.6237269 13.895713
112 1 16.3686371 14.2223921 17.8226567
113 1 19.6073303 0.1760432 6.6620679
114 1 4.2500539 4.4582877 10.9784108
115 1 5.7219415 17.3884621 2.7141991
116 1 8.4902773 0.141723 16.023365
117 1 12.7893629 1.996768 16.6897793
118 1 15.9843378 5.509542 11.4793902
119 1 10.8303242 13.0747643 18.6048241
120 1 19.5989495 11.1592655 12.022788
121 1 2.7387154 6.934154 5.4022513
122 1 5.4505315 9.958765 18.8560982
123 1 15.2489205 15.4873829 8.2638617
124 1 11.5828562 3.2419276 14.5740967
125 1 19.3831329 7.5374823 16.2638722
126 1 17.1887856 7.6382241 0.6358354
127 1 8.3981266 19.041357 7.6682229
128 1 1.4308775 18.8571282 2.7638903
129 1 2.033205 3.5885499 15.8073187
130 1 17.1172524 18.8981916 5.4620152
131 1 5.862898 10.684866 10.2413025
132 1 3.850133 15.6538296 3.5991586
133 1 14.7617474 7.9851494 10.7026778
134 1 14.1925535 8.5349579 17.3885727
135 1 12.5811568 15.0111618 16.8172531
136 1 16.6746197 12.079504 19.4415875
137 1 6.8472414 2.1814566 3.5547486
138 1 6.2690559 12.8464662 15.5962582
139 1 19.2723007 5.2223096 0.3244523
140 1 18.8373947 6.7002025 13.7267561
141 1 14.888586 11.7575512 16.6575585
142 1 11.8378039 14.8244181 10.3054485
143 1 12.5254278 5.3987336 3.0456021
144 1 17.1369782 6.9345056 7.7672677
145 1 3.0404689 8.5591812 19.3616219
146 1 8.7945748 5.2716789 11.9033776
147 1 8.539732 14.8061466 3.8987608
148 1 8.4293909 19.0162163 11.0559568
149 1 4.3102098 4.4238901 4.7899471
150 1 17.7274304 9.1839428 12.2252531
151 1 5.8847132 17.679514 10.7687226
152 1 18.0419617 16.7483177 12.1179562
153 1 11.1060076 9.2632599 12.2313624
154 1 4.5088926 14.5822506 5.9982944
155 1 4.0804119 7.2336941 15.204154
156 1 1.9921504 2.0127065 6.1329227
157 1 12.8728896 5.6120529 14.2730723
158 1 14.2938414 9.8001452 1.9757848
159 1 7.3016515 3.6209581 15.7063923
160 1 14.1885891 18.6931629 1.6080281
161 1 19.6898442 7.9313598 1.5776391
162 1 2.3559077 10.4678526 11.9265996
163 1 4.0945973 18.8329449 6.9336964
164 1 13.859047 19.4278355 18.8669282
165 1 14.710167 10.2341118 4.5209375
166 1 9.2605019 11.3189783 12.5938187
167 1 12.6387005 19.2669373 5.0782714
168 1 12.4319372 0.4862173 8.8324919
169 1 6.4902468 7.1230469 3.4783907
170 1 6.1779122 8.9732742 12.3001785
171 1 10.7453289 16.0229874 8.3163386
172 1 9.2681046 11.6925726 16.6867314
173 1 19.6871319 4.2088413 7.315692
174 1 14.8973284 5.6258745 16.5096283
175 1 5.1482167 16.971285 15.7300806
176 1 16.0015354 16.9512138 13.952037
177 1 0.2954625 4.3188195 4.4956227
178 1 7.423903 3.1761336 13.0460224
179 1 3.91795 9.6386147 3.2332184
180 1 6.4771471 9.8490296 7.6386709
181 1 3.4169083 5.8607192 7.87138
182 1 14.5818529 1.559282 12.8699656
183 1 2.1063342 18.1073494 0.2899685
184 1 16.3511047 12.8324833 13.7923098
185 1 5.9672018 3.3418706 0.8642828
186 1 8.7117415 0.6628601 13.3888493
187 1 19.4764977 13.9442798 17.7272606
188 1 6.4881239 15.1160002 11.5805798
189 1 16.2144108 18.2661991 18.2370892
190 1 15.0787773 1.4556241 8.6623583
191 1 15.790184 9.5047665 19.3107491
192 1 15.1049271 8.4677487 6.3850217
193 1 11.2130528 1.2314019 12.5440731
194 1 2.1140683 7.4538632 17.0681667
195 1 5.1477413 16.5745831 18.7518177
196 1 8.6833153 14.0353432 8.378418
197 1 18.5351696 9.9837276 16.0166893
198 1 15.9474888 3.1253357 2.1345379
199 1 16.8417912 1.822704 10.6433506
200 1 0.7373863 17.6590138 12.8668948
201 1 6.0132442 2.3440089 10.9362764
202 1 4.6274004 5.4015517 0.0188579
203 1 6.2119908 17.6340847 8.1969061
204 1 4.6783996 18.7407646 0.6516754
205 1 17.7755738 4.2999487 10.1590309
206 1 18.7790547 3.3057118 2.1374397
207 1 1.5213589 12.1729565 4.5622759
208 1 19.0386715 11.4767361 18.4284935
209 1 18.1702614 8.4856472 5.4571271
210 1 13.5475712 4.0446053 0.7466334
211 1 18.7451477 12.8109064 10.0461025
212 1 18.5264302 16.4651833 4.6562882
213 1 2.5976074 13.3972683 11.2152825
214 1 6.6926914 6.4728799 18.4773331
215 1 5.1577373 13.3557625 10.0818234
216 1 7.4978628 15.7679987 18.4821224
217 1 0.2199011 17.7539482 18.413168
218 1 19.2027206 0.3839136 10.1762667
219 1 0.6990206 1.3796291 14.9829312
220 1 0.4200515 7.0000181 3.9848852
221 1 13.1812372 12.2726298 10.0770254
222 1 13.9442692 13.174921 2.2652924
223 1 8.7715769 5.2135067 19.4875527
224 1 11.9317608 9.6027689 16.1986504
225 1 8.1020708 12.2087603 10.0774136
226 1 10.7663756 11.4289084 8.949895
227 1 13.1313801 17.1787262 6.971436
228 1 6.5272761 6.2451115 15.9036466
229 1 4.0372071 6.962679 2.0930836
230 1 0.9706148 10.1379185 0.4203065
231 1 2.8918136 1.0630493 3.5466218
232 1 1.647758 16.7975045 4.3801394
233 1 2.5184911 12.7405653 6.9915714
234 1 10.1301251 13.1259623 14.5602741
235 1 4.4183025 0.3346036 11.646617
236 1 3.8011263 1.4187451 8.5857563
237 1 15.0627852 5.0435557 3.9204136
238 1 8.300623 7.3061433 13.740448
239 1 14.1061926 1.9775728 4.398087
240 1 11.9591876 17.0786476 15.2868576
241 1 10.1359024 4.0549459 5.877854
242 1 16.3554573 5.0199447 14.1290436
243 1 12.5930662 7.116991 7.0505705
244 1 16.3266754 18.9184036 15.6123505
245 1 1.3966935 4.2321186 10.6021681
246 1 8.5117102 6.5095268 5.9001008
247 1 2.5317796 15.3868141 13.1867781
248 1 2.5004547 11.5298662 1.9575558
249 1 1.1127513 2.2021873 8.8380938
250 1 18.996851 18.9322872 14.8907548
251 1 17.7010212 10.9678794 8.6497097
252 1 13.3325386 16.5594292 12.805399
253 1 8.2937813 7.9600302 7.980844
254 1 6.5312562 1.4751935 17.1731148
255 1 4.6096745 8.8746186 6.0710931
256 1 4.6339207 10.8284159 16.482029
257 2 4.5339017 4.1868916 7.8201323
258 2 7.938344 5.4587732 10.1442261
259 2 7.1792541 12.4436693 5.7203994
260 2 7.8894324 17.5463085 0.0554412
261 2 12.4835253 5.4295931 7.0353427
262 2 15.4294501 9.0263147 14.5413618
263 2 18.2927284 13.76544 4.4051523
264 2 15.4374714 13.884757 14.9726382
265 2 6.0223103 3.8000717 7.4928909
266 2 7.7428088 6.5803027 9.0422716
267 2 7.8695642 12.5765391 7.1114197
268 2 8.6026049 17.6785679 1.4477248
269 2 13.2826862 4.0409684 6.9770928
270 2 16.6858063 9.4544821 15.4692517
271 2 17.8724594 12.8380013 3.2800689
272 2 15.6600313 15.4201269 15.0182791
273 2 7.0591245 13.8935566 4.2914643
274 2 1.6797483 12.1521511 16.0107079
275 2 3.6759904 8.0279465 10.1813755
276 2 17.8290196 19.6695118 18.4361611
277 2 11.8614874 13.115015 6.1336994
278 2 11.279479 8.4119978 13.5748253
279 2 11.344347 2.46466 3.0160394
280 2 12.0769787 4.7525296 11.5775595
281 2 5.5082822 13.6898108 4.7087369
282 2 1.0235498 10.9763404 16.7857971
283 2 3.1262796 9.2143755 9.1833029
284 2 19.2532749 0.3436599 18.2124825
285 2 11.0182886 14.0261555 6.9564152
286 2 11.7058478 7.1497831 14.4627562
287 2 12.7958164 2.184777 3.038856
288 2 11.805955 5.9436054 12.5040283
289 2 10.712204 15.7844115 6.5636964
290 2 9.8476544 18.8411904 9.8655148
291 2 7.8413086 8.8337479 0.5744127
292 2 11.8943958 6.7578674 10.7584467
293 2 2.600966 18.3013802 6.8351712
294 2 4.1848292 19.2879849 13.329443
295 2 2.910322 14.6578131 0.8842418
296 2 19.2753468 7.7727037 9.6896582
297 2 11.2747946 15.9642278 5.1037288
298 2 11.1888914 19.1456795 9.0639401
299 2 8.4521437 8.651105 18.8655128
300 2 11.7278891 7.5117193 9.4474097
301 2 1.1062839 18.7098351 6.7929058
302 2 4.0860662 18.359293 14.6044741
303 2 3.5837622 14.61271 2.2713654
304 2 18.1602078 8.3828659 10.506156
305 2 16.7474385 18.2334118 9.1818781
306 2 14.7093439 16.3411923 19.6384774
307 2 19.268755 11.7855835 13.7106018
308 2 0.4385881 17.2809391 9.4347945
309 2 9.495718 15.6878863 12.5162611
310 2 10.4721728 19.2292519 16.5663109
311 2 7.1713414 9.7718916 2.4145939
312 2 6.0674939 12.0708838 3.0777464
313 2 17.9850808 19.0162048 9.7564001
314 2 15.998702 15.6028519 19.2840557
315 2 18.9461328 11.5970936 15.2727804
316 2 1.0862243 17.1085758 8.0500317
317 2 9.1026316 16.6614952 11.5525999
318 2 11.902441 0.2325041 16.8032341
319 2 7.2624197 8.1853018 2.7094665
320 2 5.203567 10.6840401 2.8352945
321 2 9.3877831 11.1091099 5.4728914
322 2 2.0412266 19.65205 18.9314004
323 2 2.654788 1.6546085 0.3616354
324 2 8.787591 16.7041474 3.8233724
325 2 16.2673607 10.6207676 9.289279
326 2 16.2628689 7.6430688 3.9000288
327 2 13.4251013 16.1200008 3.7124894
328 2 16.6809597 16.3635483 1.6280296
329 2 10.1142073 10.2129116 4.3878265
330 2 2.6039739 1.0855749 18.0653667
331 2 3.884862 2.567868 0.7736993
332 2 7.5641718 17.4300576 3.3490827
333 2 14.8441182 11.2462626 9.4657946
334 2 16.1994343 7.3479753 2.3866296
335 2 12.0905838 16.5163746 2.8687468
336 2 17.6576901 16.2784367 2.9266232
337 2 3.2342734 4.4465904 3.2832725
338 2 10.4889603 9.2251177 18.6983395
339 2 12.6252356 3.3091154 10.0540047
340 2 10.3778486 2.4187868 19.151619
341 2 1.1348634 14.9892416 9.0188227
342 2 17.7932759 5.3284598 17.2770577
343 2 17.2524796 15.5822582 7.6153941
344 2 10.3579016 3.5536261 15.7039347
345 2 2.6111508 3.95454 1.91221
346 2 10.5615025 9.1582899 17.1257877
347 2 12.2245522 3.6255286 8.5612126
348 2 9.6838694 2.904841 17.9093324
349 2 1.4556331 13.6096564 8.2026453
350 2 18.1656704 6.871059 17.1958733
351 2 18.7994995 15.8835784 7.9095092
352 2 10.2249556 4.5290728 16.9025842
353 2 4.7347784 1.4146814 16.6178284
354 2 12.7548962 2.4526491 0.1172201
355 2 5.6963191 15.1486092 13.3380365
356 2 5.9305472 11.978054 1.0427992
357 2 18.552393 3.4773667 12.9518614
358 2 11.4804287 0.5596149 1.7526078
359 2 15.2891722 12.561122 6.8996
360 2 17.3816643 11.8188219 5.2936335
361 2 3.6529055 0.7495439 15.650095
362 2 12.5716048 0.9093298 19.4237137
363 2 5.5921407 14.2655735 14.5390892
364 2 4.8937464 12.9826412 0.4765608
365 2 18.9068376 4.2954874 11.7301684
366 2 11.0452719 18.753418 1.79773
367 2 13.7583561 12.6606789 7.3315711
368 2 17.1108379 11.3029995 6.8349934
369 2 1.0338802 6.0892715 10.2710505
370 2 8.0911551 10.7652178 15.4409724
371 2 7.0601401 16.9262048 15.869856
372 2 2.0953877 15.1024599 18.6192894
373 2 10.5685063 9.6454935 6.8381853
374 2 13.1146088 6.9271608 0.324897
375 2 14.443039 14.0647631 10.5842257
376 2 10.4624424 16.1416416 1.1936743
377 2 1.6392944 7.3964682 9.7719965
378 2 8.2342472 10.6374293 13.9050618
379 2 8.0539913 16.6445065 17.0321465
380 2 2.2381604 16.4445019 19.5404454
381 2 10.7132702 10.0396166 8.2795906
382 2 12.3919306 8.3426781 0.6985556
383 2 14.6253977 15.4158096 10.0195274
384 2 11.8732014 16.5440674 0.7294868
385 2 14.6686278 18.579155 7.2615843
386 2 16.9841576 2.0922301 14.9052096
387 2 3.8254583 9.8848468 7.3378801
388 2 1.9578786 14.309412 14.5253792
389 2 9.6624937 1.5938816 4.299314
390 2 14.3162012 4.3475714 11.5034981
391 2 13.5889015 11.7860785 18.6223507
392 2 9.0465813 16.1832523 14.7684574
393 2 16.1336689 18.9146366 6.8270574
394 2 18.135767 2.832356 15.675829
395 2 4.5474582 10.8726692 8.3031483
396 2 0.6121772 13.6211043 14.6693726
397 2 9.8721552 3.0247099 4.6514507
398 2 13.91185 3.0204198 12.1230497
399 2 12.2416859 12.383565 19.0184345
400 2 10.5625687 16.1798229 14.5298014
401 2 18.5820732 0.3956827 0.938845
402 2 4.0016079 5.7316633 13.857502
403 2 7.9005728 0.328803 0.2760133
404 2 5.6000057 14.4274788 8.7837019
405 2 10.1934099 5.9253926 18.4700737
406 2 14.8157578 2.4770284 7.7345767
407 2 14.5307932 8.324173 12.4460192
408 2 16.8700944 14.1585779 2.0765791
409 2 19.0420074 1.3747518 1.7972422
410 2 4.1097326 4.6619606 12.7153216
411 2 8.1756268 1.6133437 19.2958965
412 2 7.0938969 14.563963 8.0293732
413 2 10.5147419 7.2355981 17.4482575
414 2 15.3933058 3.5839618 6.7441097
415 2 14.088789 7.4246083 13.6824036
416 2 15.6483231 13.2749252 2.2370303
417 2 1.7831388 0.7734109 12.9347592
418 2 5.1481624 19.4031601 5.0388389
419 2 2.7047944 7.1464443 12.1646547
420 2 9.4312277 18.7146511 4.3938136
421 2 10.2276564 2.6054304 9.7279644
422 2 6.0589871 4.8596312 4.7244277
423 2 9.2632742 9.2099457 2.7630801
424 2 9.8021155 14.128129 0.3895435
425 2 2.6786537 0.2927491 11.7709389
426 2 5.30475 18.5806103 3.6272223
427 2 2.2679253 6.0308623 13.0982475
428 2 9.1207542 19.2913437 5.8209839
429 2 9.0234938 1.7221958 9.9520988
430 2 7.0075874 3.7828465 4.1046553
431 2 10.5960245 8.6369581 3.3810914
432 2 8.7097187 15.1649046 0.4769981
433 2 13.3354874 11.2505655 4.750793
434 2 12.1002989 6.0942702 18.3824597
435 2 15.9106884 11.5774699 12.8544856
436 2 12.0976038 11.1395245 15.3834419
437 2 15.7059393 0.7978218 15.9704724
438 2 19.4944649 3.5391186 17.3116665
439 2 16.0240879 14.5312004 11.2776098
440 2 19.1223431 15.1335478 18.894804
441 2 11.7591934 11.4250307 4.6013446
442 2 13.1140642 5.1888175 19.1018162
443 2 15.6479578 10.7574711 11.4773226
444 2 13.3379431 12.1261301 15.5366469
445 2 15.0804396 1.5166571 14.8044768
446 2 18.4625359 2.5586026 18.023241
447 2 17.3584442 15.1757593 11.8968488
448 2 18.3705826 15.653019 0.5535365
449 2 6.1035342 6.6263008 10.3755627
450 2 8.3974066 4.2586646 6.8519436
451 2 7.5093713 2.2454512 8.3181706
452 2 0.8091632 16.1529579 15.4253092
453 2 11.5917282 6.6224184 3.877671
454 2 13.8871098 10.8225985 12.5940285
455 2 13.0270195 14.7997542 0.0270998
456 2 13.0752811 18.9688722 10.7977505
457 2 5.5685783 7.7081943 11.3687067
458 2 7.6588865 4.7985225 8.2094641
459 2 6.6613279 1.6843357 9.5121479
460 2 0.0928386 17.5943833 15.4195013
461 2 11.7972861 7.6867571 4.920258
462 2 12.8364554 11.6364355 13.3566151
463 2 13.0328569 15.4728928 18.3926811
464 2 13.0381842 18.0897331 11.977481
465 2 9.7604513 3.8251138 2.4319227
466 2 1.9982114 5.385591 17.9854546
467 2 12.0131073 10.4025555 0.442055
468 2 6.9043532 12.9184046 19.0422916
469 2 17.6114674 4.2869635 5.982503
470 2 15.5650082 1.127774 3.3629725
471 2 3.3749547 9.9068156 13.2202692
472 2 17.3241558 14.2993984 17.6485977
473 2 10.8778392 4.906457 2.5043836
474 2 2.9715818 5.1132054 19.1704025
475 2 10.9992094 9.7579394 1.5075361
476 2 6.7333522 13.2242289 17.5515747
477 2 17.1196976 5.6240959 6.6062222
478 2 16.8125572 0.626487 2.5556329
479 2 4.1178794 10.2650976 14.6185417
480 2 15.952179 14.4511309 16.9250298
481 2 18.7516041 0.2036134 6.0712476
482 2 3.329032 4.290175 10.6763697
483 2 5.4999061 17.874651 1.863447
484 2 8.3592138 18.9142284 16.009325
485 2 12.667656 1.8541192 17.6853371
486 2 15.4395352 6.2894621 11.1632328
487 2 10.3856211 12.5214854 17.8991756
488 2 18.9606496 10.3497753 11.9540834
489 2 0.4493579 0.9229936 6.5031982
490 2 4.4824562 5.3858757 11.0391417
491 2 5.1130157 16.6473522 2.7816017
492 2 8.3847723 0.2251932 15.021203
493 2 13.6715222 1.6853786 16.5110092
494 2 16.0397835 5.4862724 12.4780998
495 2 11.4068394 13.6741953 18.1037293
496 2 19.3276692 11.7774077 11.2977247
497 2 2.0040519 7.0979996 4.7851091
498 2 6.307704 9.5799322 18.9745026
499 2 14.6371241 16.1347599 7.9508672
500 2 12.0575132 2.8350985 15.3228092
501 2 19.1405029 7.3757806 15.3091564
502 2 17.2927303 6.7153507 0.3344923
503 2 9.2553511 18.8211022 8.0369196
504 2 1.9740056 19.6110745 3.1016963
505 2 3.2964926 7.709908 5.4392143
506 2 5.5188928 10.8026791 19.3521004
507 2 14.948927 14.6226502 7.8442454
508 2 11.4876509 2.5505276 13.8771706
509 2 0.6145162 7.4162531 16.413517
510 2 16.704052 8.211031 19.6893502
511 2 7.9542484 0.0976471 8.2150717
512 2 0.4855181 19.2131271 2.5687015
513 2 2.7638119 3.1114035 16.2858601
514 2 16.7077103 19.3436089 4.6801563
515 2 6.2338905 10.2107563 11.0287695
516 2 4.2929745 15.2391377 4.377204
517 2 13.8125992 7.922802 10.5113478
518 2 14.0819101 7.597867 17.596798
519 2 12.4982596 15.7781439 16.2357464
520 2 16.5800705 12.4026365 0.6440779
521 2 2.4279125 3.8820088 14.9417392
522 2 17.6680317 18.1101379 5.1869674
523 2 6.105906 10.2305241 9.4189386
524 2 3.1129923 16.2222901 3.9213862
525 2 15.2096338 8.663579 10.2119913
526 2 14.847374 8.5974379 16.6548691
527 2 13.3428631 14.4820776 16.4757443
528 2 16.3594723 12.8491812 18.9305592
529 2 7.7004404 1.675651 3.7677932
530 2 5.7682896 12.0242033 15.7865906
531 2 0.4684134 5.0600085 19.6809616
532 2 19.6361714 7.0156989 13.2466307
533 2 15.5686159 12.2992745 16.9571762
534 2 12.1073675 13.8498908 10.3739185
535 2 12.8911438 6.1926599 2.5668733
536 2 17.6174584 7.4429207 8.4972821
537 2 6.2735906 1.3859308 3.373164
538 2 6.9819956 12.6511965 14.9493352
539 2 18.7558575 5.1892166 19.18643
540 2 18.7110653 5.7954245 13.3679333
541 2 15.2735748 10.9900266 16.2261791
542 2 11.1744127 15.0579767 11.0717468
543 2 13.2414065 4.986538 3.582381
544 2 16.2079372 7.1797929 7.7433262
545 2 2.9968688 8.2313261 0.6058479
546 2 8.5063696 5.8822094 12.6062527
547 2 8.9052726 14.4631691 3.0860369
548 2 7.5742569 18.4469376 11.0908804
549 2 4.3138437 3.9193822 5.6433339
550 2 17.9384136 8.5744553 12.9544068
551 2 5.9942728 17.6359616 9.7840243
552 2 18.9605218 17.0332794 12.457326
553 2 3.893697 9.0101099 19.3385983
554 2 9.7561436 5.2693162 11.9026452
555 2 9.3343668 14.871359 4.4836412
556 2 8.5777912 19.3812389 11.9433852
557 2 3.8560584 5.2342153 4.9648644
558 2 17.0298367 9.8234082 12.4116802
559 2 6.2149 16.7658978 11.0216198
560 2 17.9244156 17.2531719 11.2572346
561 2 11.470603 8.6492224 11.5499268
562 2 5.2273936 14.5891543 6.66292
563 2 4.3056474 8.0663996 14.7480011
564 2 2.8840384 2.1904008 6.3944187
565 2 13.4312783 5.4726916 15.0636272
566 2 14.8279562 9.7989187 1.1214488
567 2 8.2055025 3.8708242 15.9645444
568 2 15.0100851 19.0244179 2.1106415
569 2 11.862835 9.87393 12.3854895
570 2 3.7801974 13.978758 6.2238126
571 2 4.9300118 6.8278752 15.4163704
572 2 2.2642663 1.6197956 5.2600479
573 2 12.5267325 4.6995607 14.2133017
574 2 14.1830959 8.8410646 2.1129632
575 2 6.971405 3.0726457 16.4316235
576 2 13.4687615 18.9261208 2.1819084
577 2 0.2248426 7.1914234 0.9759506
578 2 1.4343066 10.5875244 12.0990887
579 2 4.8411366 18.3331471 7.3160162
580 2 14.1020746 19.0348034 19.6924324
581 2 15.5146666 10.7017555 4.7567573
582 2 10.0348492 10.912282 12.1473017
583 2 12.5504084 18.8694478 4.2091136
584 2 13.3735285 0.4747364 8.7659846
585 2 18.7010803 7.9440018 1.4684913
586 2 2.3959203 9.6659346 11.2686043
587 2 4.0661044 0.0074161 7.3775272
588 2 13.259119 18.9056168 18.3663464
589 2 14.6423331 10.1993084 3.5533428
590 2 9.7168522 11.9601974 13.1560755
591 2 11.7008543 19.5305252 5.2504316
592 2 12.2944136 1.4145286 9.0260611
593 2 6.7276736 6.2140575 3.6868246
594 2 5.5773468 9.3689938 12.9697208
595 2 10.54284 16.9148388 8.7611618
596 2 9.4922028 12.1872826 15.8479652
597 2 0.3207352 5.0765476 7.4851747
598 2 14.248951 5.4755392 17.2124443
599 2 4.7850509 16.8227043 16.6739254
600 2 16.6702252 17.2124729 13.3277025
601 2 5.6061301 7.0776982 2.9938638
602 2 6.892007 8.6514578 12.840191
603 2 11.1514559 15.4674721 9.029604
604 2 8.5177641 12.1355009 17.0692577
605 2 0.133275 4.0842285 6.4057951
606 2 15.7762089 5.9202848 16.8155251
607 2 4.9998394 16.0907421 15.3169508
608 2 15.8542976 17.6861859 14.6170378
609 2 0.970297 3.9271634 3.9364874
610 2 7.815517 4.0107594 12.7867852
611 2 3.2909448 10.2278175 2.7926409
612 2 7.1110168 9.0970993 7.8615318
613 2 2.7659753 6.2183986 7.3016052
614 2 15.419199 1.4411812 12.362957
615 2 1.9022858 18.3868923 1.239471
616 2 17.1306839 12.5451079 14.3147364
617 2 0.4101768 5.2681289 4.2851477
618 2 7.3135748 3.2091162 13.9887534
619 2 3.6482296 8.7271719 3.0819781
620 2 6.9139248 10.5756388 7.1817269
621 2 3.0231452 5.8652296 8.7558756
622 2 14.000391 0.8618096 12.6059418
623 2 1.2382388 18.0227795 19.5376511
624 2 16.7722302 13.3828669 13.0083036
625 2 6.278822 3.4744756 1.7905669
626 2 8.4174891 1.6030927 13.2124481
627 2 0.2206968 14.0082684 16.8349915
628 2 6.0543699 14.3310661 11.1599999
629 2 15.513876 18.8545742 18.4543114
630 2 15.4615069 0.5806681 8.2189255
631 2 16.0306358 10.4548846 19.2783413
632 2 14.8486996 8.977789 5.5483556
633 2 6.4759984 2.5821967 0.5860562
634 2 9.6663542 0.757069 13.3967533
635 2 0.0120119 13.1263485 18.0933418
636 2 7.4497953 15.0801725 11.5679837
637 2 16.2696896 17.6293087 18.9844056
638 2 15.6379881 1.5923815 9.4519844
639 2 15.233552 9.2395563 18.6191006
640 2 14.948657 9.2428188 6.9225522
641 2 11.9247428 0.5784817 12.4030142
642 2 2.5291269 7.7798991 17.8510896
643 2 4.4359885 16.1453037 19.1889458
644 2 9.3468723 14.7691193 8.5230274
645 2 18.6204777 10.2472639 16.970499
646 2 16.9251328 3.3570137 2.021368
647 2 17.2610455 2.6205285 10.3732453
648 2 1.3408716 18.3076592 12.4015103
649 2 10.8221598 1.5494921 11.6792507
650 2 2.7083059 7.8374057 16.3835983
651 2 5.2176232 17.4540482 19.2409554
652 2 8.6749687 13.5338984 9.2652283
653 2 19.0078487 9.0742331 15.9794074
654 2 15.7570858 3.7725652 2.8093615
655 2 17.6167889 1.2432816 10.6526261
656 2 1.2901535 16.8722554 13.0747185
657 2 6.600915 2.5029583 11.6821957
658 2 5.1667113 4.6808791 0.3147045
659 2 7.0119295 18.1485405 7.8706064
660 2 5.1585097 19.5561733 0.3466776
661 2 18.236702 4.7378211 9.4298916
662 2 19.0852833 3.9230726 1.415036
663 2 0.6192838 12.2719736 4.2965555
664 2 18.11273 11.6235399 18.7923317
665 2 5.4559455 3.15712 11.016469
666 2 5.1839604 5.9573628 19.1855679
667 2 6.3517213 16.7194176 8.0137339
668 2 3.7604244 18.6995602 0.2166215
669 2 17.1185818 4.993908 10.4848271
670 2 19.0635681 3.6331694 2.977984
671 2 2.0367923 11.9697944 3.7552939
672 2 19.5003243 10.8978196 19.0531864
673 2 17.7932148 9.4032049 5.3698802
674 2 14.3219242 3.7758873 1.2446418
675 2 18.1651001 13.4325829 10.5522824
676 2 18.4680386 16.2378483 5.6088429
677 2 2.4017336 12.4583769 11.4077444
678 2 7.3655691 5.9347364 18.9082928
679 2 5.3762527 12.4345217 10.2018433
680 2 6.4919424 16.032877 18.6421929
681 2 17.7771569 8.115056 6.2862525
682 2 12.9831592 4.1389012 1.5180159
683 2 19.4728813 13.3586655 9.6635218
684 2 19.4854031 16.4583779 4.4341278
685 2 2.2566898 13.5555763 10.2875433
686 2 6.929587 7.3927055 18.8052597
687 2 4.2407432 13.3518114 10.4781647
688 2 7.5374441 14.775115 18.436142
689 2 19.3370361 17.1175251 18.8215351
690 2 19.6845265 0.8159331 9.4335614
691 2 1.3450306 2.0457695 15.2850323
692 2 0.2666636 7.1476059 3.018285
693 2 12.3923159 11.841034 9.7371807
694 2 13.837101 12.5451088 1.5430641
695 2 8.953166 5.2197776 0.7324886
696 2 12.8233643 9.2500763 16.578701
697 2 0.2225374 17.5923558 17.4242039
698 2 19.6842079 0.3846044 11.0265389
699 2 0.004659 2.0086951 14.6749554
700 2 19.5281334 7.6397462 4.4144459
701 2 13.212903 11.9920206 10.9682246
702 2 13.390688 12.8414392 2.9910296
703 2 9.0479841 4.3338094 19.2095413
704 2 11.5879812 8.9857006 15.5077038
705 2 8.4250765 11.9841642 11.001976
706 2 9.8543606 11.4452572 9.2553797
707 2 12.3179302 17.115797 7.4386974
708 2 6.6068707 6.570096 16.795826
709 2 3.4693761 6.304626 2.4892278
710 2 0.5669447 9.3967486 0.9524734
711 2 3.833262 0.6734867 3.6457131
712 2 1.5231921 17.6191864 3.7987645
713 2 7.4915362 11.4866066 9.894145
714 2 10.85845 12.0132313 8.1580553
715 2 12.9283504 17.6669808 6.1556392
716 2 6.8230257 5.2593064 15.9161492
717 2 4.413105 6.4519706 1.3230479
718 2 1.726911 9.6154928 19.6823082
719 2 2.9590696 1.5158031 2.6661539
720 2 1.8279243 17.0888004 5.3374505
721 2 2.0962467 12.4423323 6.1246061
722 2 11.0880337 12.8128853 14.8220968
723 2 5.0349569 19.3245926 11.4806023
724 2 4.5131088 2.1234021 8.2682982
725 2 15.6829634 4.8858466 4.6192799
726 2 9.0378695 7.850401 14.0545273
727 2 14.2032108 2.524272 5.1916781
728 2 12.4038754 17.1124592 14.4023972
729 2 2.6505955 11.9388504 7.5171395
730 2 10.0382557 14.114275 14.4408055
731 2 4.9222708 1.1465278 11.4603005
732 2 4.2918005 1.0630262 9.3577461
733 2 15.306881 5.9752556 3.6658986
734 2 7.7084699 7.2170515 14.5271931
735 2 13.694336 1.1277173 4.6822095
736 2 11.9153728 18.0176983 15.5257044
737 2 11.0046291 4.0707898 6.37958
738 2 16.7518654 4.1674237 14.3957634
739 2 11.938097 7.8716956 7.0710845
740 2 17.3068485 18.9068756 15.474102
741 2 1.1176133 3.5476392 9.990821
742 2 9.0673075 7.0254283 5.2971735
743 2 2.4320326 14.6395378 12.5289173
744 2 2.4971645 12.4435883 1.6188572
745 2 9.8734284 4.9575462 5.7375989
746 2 16.070673 5.4243274 14.989936
747 2 13.4264889 7.493249 6.7340436
748 2 16.1612015 18.4754868 16.4650822
749 2 1.2813633 3.8703372 11.4238129
750 2 7.9053942 5.9863044 5.3272877
751 2 3.3518276 15.3089314 13.6302395
752 2 1.8282869 11.0703764 1.3204999
753 2 0.8008856 2.7815011 8.1140995
754 2 19.533762 0.0098963 15.1706667
755 2 18.0134811 11.7538023 9.1268139
756 2 14.2428341 16.7543507 13.1961899
757 2 8.2068234 7.3191714 7.13729
758 2 7.0332751 0.8128038 16.6386566
759 2 4.7700024 9.1200094 5.1272364
760 2 5.1059356 10.2833328 17.1421032
761 2 2.0462952 1.957758 8.7428036
762 2 19.2899895 18.7671662 13.950575
763 2 18.3174286 10.2448197 8.9450064
764 2 13.5224591 15.8133126 12.2419958
765 2 9.1493273 8.4572916 7.791873
766 2 6.7351866 1.15803 18.0556965
767 2 5.4009214 9.0768299 6.6248937
768 2 3.7052522 10.7725497 16.6801033

Velocities

1 -0.5878775 -4.4078255 7.0535154
2 -2.8569282 -0.2181508 -1.1030394
3 -0.0999345 8.724021 -3.2883661
4 3.3825705 -11.6948195 7.0836101
5 5.7890821 4.6945901 1.5366529
6 3.1492593 6.7883477 -0.9690762
7 -0.5466306 2.906952 3.082757
8 -2.9415736 3.5492883 -2.7965875
9 -2.6268275 -1.3583557 -0.1930599
10 5.0495014 3.4254771 6.0547352
11 -1.6310365 2.5094393 2.4156048
12 1.9789252 -7.8991386 -5.2520647
13 1.9986522 -2.3495174 -3.7888551
14 8.3334475 -4.0275316 -1.3929976
15 1.4042236 4.3256517 -5.7707567
16 -3.9365798 -4.6549087 0.1160195
17 -7.9143052 -0.6032394 1.5234716
18 0.2173877 0.1312302 2.7340715
19 -4.8334947 -1.7581878 -2.5345774
20 -0.3972941 -1.5179693 3.0862813
21 -0.6523096 3.0301845 -1.7176781
22 5.5216217 0.9113254 4.9671278
23 -1.3425263 -3.6391273 4.6576224
24 -8.3859615 0.0649777 7.356616
25 -2.9376868 -6.0058613 -1.5939902
26 5.6176462 -4.373982 -4.0786471
27 7.1647167 -4.3577614 -2.4576359
28 3.3363955 5.3756027 3.1391206
29 3.3804009 4.8718524 -0.2748046
30 -1.4438201 2.0605202 0.2531416
31 0.1561861 0.9347308 -1.524079
32 1.2566702 0.0731066 -1.131563
33 -0.1880747 -7.5785957 -5.1652541
34 -4.3710866 -3.9636724 -3.625293
35 -2.182878 4.1721611 2.788112
36 -2.0901871 5.5561581 -0.1811588
37 3.744215 3.9763132 -4.3766661
38 -1.2421188 -0.6192692 5.0279374
39 -5.1066341 0.6371608 -3.1009614
40 -0.3282782 -3.365283 -4.5221815
41 -0.7159018 6.0563331 -4.0578556
42 2.3156309 1.3845977 -1.3679311
43 2.054734 0.5190083 -1.6536731
44 4.0874515 -3.7450967 -1.4948746
45 6.0939298 2.6964011 3.9232204
46 5.0117569 5.2359924 2.7541504
47 -1.822382 -5.2425957 -4.7944784
48 -3.4075751 -2.3397215 -3.7230683
49 -4.0085568 2.7164274 -6.1912432
50 -3.6105979 -1.2794706 6.9736204
51 2.2252591 4.6032696 5.6311608
52 1.5196542 -2.2756331 -1.6539998
53 5.8394648 0.1900017 2.9042714
54 1.0690388 6.365336 0.4960705
55 -1.3376153 3.4865957 -5.9640256
56 -1.3381397 -0.2667097 -4.8451524
57 -0.9137318 0.3990919 -5.478231
58 5.3869505 -4.2178321 -0.8175456
59 -1.0098659 3.439889 -1.4567182
60 -0.2319075 -3.4136212 -0.2091663
61 3.0573449 -9.5401335 3.6364734
62 -4.5227199 0.6019905 -2.4109206
63 0.123117 -2.1172471 -1.4636127
64 -3.5958166 -5.8494806 -5.850937
65 -0.072688 -1.3357612 -5.1139579
66 6.9423986 0.2292072 2.9484344
67 2.5334285 6.5621209 -6.914198
68 -2.5409353 0.5698008 -3.5225258
69 -0.8982296 -5.3327756 0.3053507
70 -0.1338801 2.5927365 2.599994
71 -1.3088728 12.3979311 1.0470909
72 -3.9216108 -1.2432966 -3.2725952
73 5.039844 1.881673 -3.7342878
74 -5.4767185 -1.8694314 3.4153435
75 4.4080796 -1.3168563 -1.0966604
76 1.8491314 4.5127588 0.8871204
77 -1.1038618 7.2186895 4.4220152
78 -0.639446 -1.9567538 3.5627854
79 2.7934778 -5.6083403 4.5416885
80 -0.2595846 5.3494706 3.6987524
81 1.7470346 3.0415545 -4.7207504
82 0.653265 5.5432863 3.4692357
83 -1.085896 1.3229791 6.7258806
84 -2.7998269 -1.1664935 4.5336185
85 -2.3888114 -5.9820162 -2.7058547
86 -2.4320257 4.9971328 -5.2586398
87 3.2387471 2.9257706 5.436965
88 -0.6862679 1.2573996 -3.4579237
89 2.3571978 -2.5252362 3.5271971
90 3.9615656 -4.2181282 -3.0521879
91 -6.4089742 5.305964 1.4520114
92 4.6925431 -3.446733 2.1358271
93 0.3762602 -5.8091202 -4.2930188
94 -0.0614269 4.5403795 -6.5673919
95 -5.5027757 0.1248442 9.3531056
96 2.5433972 -5.0389752 3.3421123
97 -4.3137188 2.2957051 4.3546982
98 -1.2533969 -0.8587346 -9.1553669
99 1.781016 -2.101264 5.485086
100 -0.6717379 4.0995717 -1.4058385
101 2.9926288 3.1775906 -0.4833966
102 3.570247 -2.7541652 -1.7080208
103 -5.6537109 6.1514754 -1.4354882
104 -0.8246077 -1.593621 3.7957964
105 -7.0134702 -0.5439435 4.2173753
106 -4.3552947 -1.6269766 7.6094527
107 4.8328686 4.1782689 1.6757705
108 -0.3081298 1.7036048 0.9966456
109 2.4005087 1.5311166 -5.3736258
110 0.6826698 1.5747051 -0.3319917
111 0.9672074 -6.2252979 -5.5527287
112 5.1837301 0.8380666 -2.6411207
113 -1.6902075 3.2113505 0.8867028
114 3.1456287 5.4738131 0.6128252
115 -0.0717214 6.6979714 -1.6376171
116 2.1195974 0.6057616 -0.6193684
117 5.7452069 -0.3088928 4.1548958
118 -4.3271742 3.0254803 -0.363285
119 2.7740364 2.3004553 -1.8478732
120 -0.4336915 5.2768612 5.5293775
121 1.1708291 7.8508668 5.4676776
122 0.7677914 0.2653971 -0.1832697
123 -5.335588 -0.8291211 0.5945748
124 3.9588466 -1.6740699 1.4874741
125 1.2794517 4.2423234 4.3086133
126 14.0615282 -3.0665655 -5.0378528
127 -3.6082087 -5.9956388 2.3315244
128 6.2398377 -4.7599964 -8.0765533
129 -2.4301751 -4.6219149 -6.0055904
130 -1.166656 2.742544 -2.4373594
131 2.2464666 -4.4298606 0.3130475
132 1.4460942 -1.9087048 0.2632748
133 7.3943133 1.4143123 -1.4172784
134 2.2172146 2.9842716 1.6569038
135 -3.0557191 0.4616086 1.0897551
136 0.413124 -0.986061 2.0399728
137 -2.4173961 -1.3853657 -1.8014956
138 -3.2658966 -1.8431532 -3.080054
139 3.2833126 -3.3684597 -2.7220392
140 -3.8722906 -5.3218923 2.5136781
141 -2.3020845 -2.0372708 2.9123226
142 3.080868 0.5633109 4.6109228
143 -0.8492552 -2.4168701 0.1277557
144 3.4446037 -4.7556749 -0.6850136
145 -2.488612 -0.0584366 8.1045466
146 -2.715302 2.2812145 -3.2857909
147 -2.7070811 2.6340337 -0.5003223
148 0.5710184 -3.0906782 0.0881723
149 -1.5826371 -2.1447961 -0.9388344
150 -6.2937317 3.1769657 -2.4380906
151 3.887121 -0.2001413 3.7664078
152 2.859408 4.2023373 0.5033134
153 8.6331949 2.0614386 -2.2124787
154 6.0717864 -2.3513086 -3.7701817
155 -0.6096434 -3.2436595 -0.5085197
156 -2.2318797 -6.3007774 2.1602886
157 1.0195491 2.061223 -7.1920419
158 0.8575076 -4.2668047 0.2842193
159 -3.1109591 -0.0711864 0.1365678
160 -0.8001711 -1.1938118 2.0182445
161 0.0740501 -3.1138454 0.696741
162 -2.3480606 1.2943848 -4.5672646
163 -5.685658 5.0996332 -2.1851153
164 -3.1519079 1.4066979 0.5811408
165 3.9001992 -3.5616746 1.943662
166 -1.5361122 3.5060032 3.2901354
167 3.6061163 8.8553802 11.4315014
168 -10.3020716 0.3410625 0.3377558
169 1.0378604 6.4012241 0.2706142
170 2.7974651 -2.7090464 5.2612362
171 -0.3332366 -7.0190716 2.5328002
172 -4.7396164 1.4876113 -0.1307324
173 5.3348155 0.652938 2.8339813
174 5.8447138 -0.9981788 -13.1787491
175 0.0788238 -3.0682271 -3.0960219
176 1.7794507 -0.1885242 -0.5757714
177 -4.8600712 -0.8601104 4.2550445
178 -6.1882529 2.4656074 2.0303319
179 -1.8044214 -1.4752932 -3.1742191
180 0.6444385 7.7195411 1.7875673
181 -3.0428219 2.4704917 1.4875639
182 2.4043784 2.8538166 -0.0269764
183 3.4729979 2.9654498 1.5269715
184 1.8883058 1.0058292 2.9147714
185 3.5577369 -3.3125751 3.0025053
186 0.8593316 1.176415 -1.2287845
187 -1.199935 -5.1094985 4.5557642
188 -4.2144127 -0.1512857 -7.7133832
189 -7.0084796 -3.3356624 3.952839
190 3.2174213 -5.5999222 0.4398862
191 -3.5684827 -2.1337328 0.0739713
192 -0.1195745 2.6062455 0.1222526
193 -2.5124212 -2.0215979 -0.2324803
194 -3.1170528 1.1224442 5.1143394
195 4.1600475 -4.1455698 -4.8417402
196 -1.0898945 -6.7691446 -2.8554504
197 -3.2078726 -6.2059064 -2.9804928
198 -1.2914766 -5.8248801 -1.1023114
199 6.5409069 0.931083 -5.6438656
200 3.3500526 -3.1554549 -0.9362466
201 -5.2080956 -2.0186138 -2.891984
202 0.3436807 -1.1835542 2.54284
203 7.1445308 -1.9730576 2.0113599
204 -6.8127518 4.7910018 -2.8831056
205 0.420586 -5.0253787 -5.8202491
206 -0.9868208 1.737754 7.7704659
207 4.1214032 -8.7838078 4.7454529
208 -5.852954 -0.4801251 1.7928429
209 -0.7869661 1.3275775 2.957897
210 -4.4084506 5.2951355 1.0174137
211 -8.0367374 0.6790965 6.4822798
212 0.8385839 -2.0475285 -0.2836571
213 5.3701458 5.0575805 0.7245424
214 -4.6492973 -1.6493192 -1.5131676
215 -6.8450352 -5.254839 0.1807716
216 -5.64603 -4.6352682 -3.1131384
217 6.494997 2.131402 -4.5749278
218 5.7553487 4.0348306 1.7768163
219 0.4453079 -1.1541644 -3.2060452
220 5.3039274 1.5861037 -4.1477423
221 -1.7072083 -1.1243179 2.4526208
222 -2.6144824 -0.3746547 0.8510412
223 -0.5296235 4.3448405 0.4296201
224 -3.8106962 1.7816558 1.2172306
225 -0.5085251 -1.2312954 -0.1160657
226 -0.210987 -0.6255409 -1.8306369
227 -0.4483412 -1.6718247 -4.2520862
228 5.168992 -1.2148776 -3.4461863
229 -5.0784106 -2.9582008 1.7833108
230 -2.8257127 4.6267052 -6.1407628
231 2.661155 5.9606338 7.5670176
232 2.2712956 5.3147392 -6.4568386
233 11.3568859 0.2870427 7.882081
234 -4.8049684 -0.6186929 -4.0550938
235 2.955685 -4.9295484 -9.778944
236 1.9788678 1.3180392 -1.3704642
237 -1.4442337 -3.2778916 -2.8171053
238 -6.0911846 -8.3301001 -0.7690978
239 4.4591651 -7.4466658 3.2169385
240 -0.1667404 3.5584398 4.4910345
241 -0.1886837 -2.8388207 -1.9219418
242 -3.767694 -0.6231354 -7.8220291
243 -0.0184496 -0.1563771 3.9447558
244 -2.4950741 1.1005292 -11.9141302
245 -3.2489996 -1.7606893 3.1667125
246 4.4362569 5.9334584 -2.103529
247 1.3348543 -4.2930179 3.3014917
248 -2.6035266 0.541885 4.5657273
249 3.1245327 -3.3094332 -0.1622488
250 -0.8119457 -3.6482671 -1.3755427
251 6.2529383 -0.417764 0.9520602
252 1.1874114 10.102335 -2.0064049
253 5.8946252 -4.75523 1.8771008
254 3.0121949 4.4791365 -0.8915772
255 -0.1669099 -1.5651926 2.4755788
256 5.6425486 -4.45853 -0.181566
257 15.3130674 -8.945716 -19.9813672
258 6.244267 -11.1994162 -13.088295
259 3.8108394 3.8069418 21.0718803
260 -17.1960259 12.3978596 -1.2845845
261 5.4529524 -6.4752965 13.1218023
262 0.8264163 1.8771974 16.4948483
263 -13.3325834 4.472744 9.879282
264 -14.2553711 -3.4518044 10.5307417
265 -6.2925453 -7.7165904 -9.1280718
266 -4.7248869 4.8936906 -17.5385533
267 2.8810046 -25.325634 -22.1957111
268 3.3625248 -9.3579197 11.7499352
269 -14.3844242 -7.8219772 -13.2386818
270 6.8431768 0.0923764 2.5635669
271 -9.2601366 -7.8163319 -16.5296822
272 -16.3971977 -1.4995765 11.2124615
273 -5.367393 -6.9290362 4.1666484
274 11.3506813 8.7825547 -2.7835989
275 8.3600226 11.471448 1.3379656
276 25.0714703 16.1600952 20.5109921
277 2.4749408 8.4265404 6.3104239
278 -21.3114987 11.8442144 -10.9537078
279 -6.6699591 1.6896646 6.2668953
280 15.2141104 9.305049 29.2588711
281 -4.630302 8.9360552 -14.2269745
282 29.4056091 5.3091092 6.6528998
283 6.0303845 -1.3318911 26.7834416
284 -3.0733016 -5.8346343 2.2948294
285 -11.3961783 -9.4720869 4.8416162
286 16.1910248 -9.1007881 5.9073316
287 -15.5562964 -6.2860041 -14.9515592
288 2.4079998 15.9439536 4.6828351
289 -2.1316814 -4.9689346 -10.6391821
290 -5.4536481 13.8531942 -1.00544
291 13.5106783 -3.8745826 22.8618814
292 -0.370368 21.9265538 -0.2387607
293 -21.907135 1.9009616 4.1374216
294 1.5381588 11.97711 -11.962944
295 11.5787335 2.2258535 1.2213903
296 3.4487751 9.889636 12.3714581
297 -3.7816971 -3.9728858 -0.2506479
298 -10.9252262 -4.2977066 -1.0581901
299 4.4130421 10.7760268 -12.6661463
300 -11.1431103 5.4385376 -8.0712996
301 -3.7671702 -14.6468792 -11.6944952
302 9.2239027 -4.3000846 0.1022183
303 -1.7697264 -26.0787544 6.863792
304 -13.8633652 9.9436092 -6.5196266
305 4.4293704 -5.7275629 -19.315546
306 -22.2059307 3.4602809 -0.052015
307 -3.0844224 9.4933529 -5.2451334
308 -14.6820088 -0.4208651 -6.1586866
309 -0.451691 -6.8852426 14.2451573
310 9.4731512 2.7031186 -4.0069175
311 2.1630838 -3.7874892 4.8223105
312 11.444376 4.8593378 1.4834118
313 7.5271821 -7.7168584 4.6716781
314 -21.7735768 18.7222252 -3.6589611
315 2.3495619 15.6083641 3.1849179
316 -0.8306324 -6.6781411 2.8172565
317 3.0647252 -1.6994814 2.701679
318 -1.0799009 -4.2750735 22.1499424
319 3.1325591 2.8087013 4.5450425
320 3.5334718 -7.3317661 1.820818
321 -11.9238844 -1.4457113 8.3000984
322 -1.6749485 -10.4495764 26.1202393
323 -13.9506112 2.2401648 3.4033563
324 9.033164 8.4722882 -8.6542835
325 16.9444772 9.7316456 12.0734196
326 -10.6754055 -15.7582026 -6.3294983
327 4.0378518 -1.7377756 13.2182999
328 -24.2274456 10.3700075 -9.2111635
329 -11.5573025 7.7348786 4.4960313
330 16.0843945 -4.6375537 0.8558804
331 7.2906437 -8.1379738 9.9009838
332 1.5060765 -19.4754696 -25.6228619
333 -10.4763947 -2.8877602 14.3436308
334 -8.5342713 -3.7068546 1.0359123
335 -14.9343616 13.8441192 -4.1901493
336 -10.1989451 10.5020504 -4.0300159
337 8.0911398 -9.2429924 3.7820502
338 -27.7476025 -9.2654104 13.1432934
339 -9.3782292 13.5900584 13.1329031
340 -8.0104113 -12.799511 12.8196774
341 1.2095108 -4.5319739 -12.1123161
342 -18.8242798 -4.1670284 12.5038519
343 -9.4917135 19.3695126 0.8948996
344 -1.182331 9.1686935 -14.5981407
345 10.960517 -14.6806984 6.2674508
346 -2.8724308 2.6388664 -9.550932
347 16.3004227 10.0259571 15.4433356
348 -9.330637 -17.0452156 12.7513438
349 -21.2230969 -7.3707614 10.272502
350 11.8559084 -3.6066098 -15.2978544
351 6.1304684 -0.9942676 3.2669075
352 -25.4217797 -8.3072901 28.9700414
353 -8.5005522 -8.3719397 -9.8306103
354 -8.2895174 18.139719 22.5505657
355 9.5672999 -7.9687862 1.6761379
356 8.7444849 9.3773222 -6.5433336
357 16.778368 -4.8119712 29.6227169
358 -18.7600041 13.4798575 1.4066011
359 -22.4459267 -0.6324172 -15.8941584
360 8.0469341 -13.1790934 -3.2906373
361 3.822516 7.7661715 9.8114052
362 20.4431076 -4.1811576 5.620564
363 12.2326746 5.8645526 -3.656668
364 1.0811625 -15.962247 -16.4381428
365 -5.855176 17.2804966 10.4331351
366 1.2952167 11.0430536 2.7792702
367 3.317014 0.5491598 -6.5304899
368 13.1775694 -4.5266357 12.1904755
369 -0.2976901 -12.506383 13.4932318
370 3.4296258 19.3513374 15.9273702
371 -3.2656708 23.2278729 -8.5006724
372 0.6714586 15.5367766 -2.7511714
373 -15.5105076 -8.686697 8.774067
374 -1.0934671 -6.4041357 1.6418846
375 16.1830349 -4.3327222 -2.054106
376 -14.8425494 -9.907405 -4.2892566
377 -14.952201 -6.9125334 -20.161129
378 0.5028613 13.2788353 4.2552977
379 -3.865563 -8.1673098 4.3992767
380 4.6999607 -11.5633869 4.6812468
381 16.2126885 -3.6251567 -2.3271244
382 7.002737 9.0638056 -2.2798357
383 -4.3719983 4.9503728 5.7334805
384 5.608089 -5.6344328 4.4382887
385 6.6144371 -11.8553686 4.8085985
386 6.4330921 4.6731739 -15.4588595
387 -9.7913542 -13.7654248 16.7259045
388 1.0735874 2.011296 9.967682
389 6.5969243 6.1136565 -16.2824249
390 -3.0530071 5.9853388 7.0483236
391 22.1800652 -0.6067967 -5.1343885
392 -3.2234826 0.5475756 -9.5300684
393 10.9086076 -3.1143031 -21.094801
394 -8.750906 7.9750672 6.8275733
395 7.9419194 5.2653976 -12.2218571
396 2.4869252 -3.6766188 13.1761837
397 -8.048893 -7.2135587 -24.7754631
398 3.6390422 -7.7528363 -8.612711
399 -7.0617623 11.5299158 1.4521556
400 12.4550238 -11.3846617 -4.7400875
401 5.049119 -12.3687534 -14.157918
402 -16.6686478 -3.9519306 -4.5854507
403 6.5514565 -3.4334793 -4.0343018
404 9.0300074 1.2460067 19.3764649
405 0.8411168 -5.8342958 1.1167553
406 -7.7948952 2.4137437 1.430918
407 -11.9642696 4.8154063 -0.6006739
408 5.7678814 -8.7085324 -14.41609
409 3.8827754 -0.6130792 -1.915398
410 -12.9283458 1.3900343 23.9045106
411 -2.8623354 5.6218319 0.5515355
412 -25.2361469 1.7206717 -8.1217117
413 2.6325963 11.919878 -8.7110415
414 3.3068936 -13.6862736 1.6121434
415 -0.2227537 6.2471156 22.9207344
416 -2.9913772 -13.9326812 3.966055
417 -15.7691756 -12.902629 0.9496204
418 -16.5583744 -6.3795591 -10.9370708
419 -19.0520401 11.8745128 13.7648611
420 14.0671492 -17.0976372 1.0556469
421 -8.4430609 -9.1822367 17.0584316
422 4.3572588 4.2601848 12.4612952
423 -12.8690882 -2.9837632 9.4126635
424 2.9715524 -0.5591436 -0.9485526
425 -24.7898789 -1.522341 11.4241743
426 1.7819408 -13.025094 -20.0212116
427 -15.1516075 -11.2899838 6.3613434
428 10.6450625 13.5904808 4.5170999
429 -11.1659088 18.5411816 -5.1694737
430 4.1002598 -7.0294371 -2.9646536
431 1.939763 -14.4584303 1.90589
432 0.6613823 8.3654909 -13.2453442
433 -3.555774 12.3893423 17.2501507
434 -5.5869446 10.1421661 -9.6695509
435 -1.8362717 2.4513619 7.2334652
436 3.9404554 -14.3280773 -2.4032476
437 -6.6469736 -9.875618 5.5070577
438 -2.3686342 -18.0181866 1.291361
439 10.5978928 -6.516407 15.9520082
440 -1.273319 7.7218337 7.046248
441 -5.5294166 -1.1648408 0.1371836
442 -2.6116905 34.4273873 15.4439173
443 -2.3272493 10.4639263 23.4996166
444 -2.8002143 15.4777699 11.4109516
445 -1.6994692 0.3423717 -5.9038764
446 -2.514133 8.2302866 -14.7808886
447 0.5583931 6.6976061 -5.4464121
448 6.8862706 5.5754113 5.3022761
449 -5.1126847 -11.2119312 -6.1503701
450 -8.8058291 4.2802034 -16.7012215
451 -5.6946359 -0.6421819 2.1704173
452 1.6060734 0.331621 1.7005267
453 -26.0274544 -1.4309473 4.5483661
454 11.4116936 7.9364654 -1.7154037
455 5.9090838 -8.9019346 1.4204484
456 -11.6481762 4.2583089 -2.4133806
457 5.5237174 30.5055752 -19.487629
458 19.5296021 6.5945626 -30.1116619
459 -7.7929092 -2.2970114 -0.230867
460 17.2177239 13.8638468 0.7066863
461 -3.3221076 -21.4081822 16.7985668
462 -14.373703 30.086134 2.3634217
463 -3.2231069 38.3337555 16.1354542
464 1.4877694 -15.7492256 -0.6021467
465 -7.026979 4.7753501 -2.3807497
466 11.5577135 14.2161083 -4.2228842
467 -7.0020428 9.0511189 -4.7925039
468 -6.9644028 -2.8476234 -3.7924049
469 17.5421028 -2.3097677 7.0704188
470 0.4175427 -14.9601746 1.0574299
471 -3.519198 14.7342816 -14.4260445
472 -10.2473078 3.8133214 -7.3238516
473 -3.0333476 11.6300259 -11.8952952
474 -8.7777682 -12.8058415 17.0674591
475 18.2954235 6.2419295 -4.7614975
476 -1.0199652 12.2457237 16.1949406
477 5.3451676 -5.8732538 -8.5302878
478 -3.6441801 -1.0068529 0.8604976
479 -2.9010354 -11.7621241 -4.528038
480 -17.2840653 -4.8150172 5.882391
481 1.7101987 -8.8867532 -2.729194
482 -7.8147969 1.9251926 29.0167046
483 13.9908962 4.7483101 -10.2401314
484 5.1207652 -19.3458958 -3.3654816
485 -14.5112314 -16.8769246 -10.8615294
486 19.4624024 -10.3585472 15.9270154
487 -11.3844633 2.3648815 9.0588074
488 12.4948263 8.1257773 4.7509141
489 -1.1246653 21.6320534 -3.5712333
490 -1.8566036 -1.5512251 -18.9003506
491 6.391037 -7.4650865 8.2209721
492 -3.3210983 -22.5130635 -18.895237
493 10.6068087 1.0801779 -20.8084831
494 -0.1596202 0.5473864 -4.0429339
495 -5.0384979 -11.5769406 -0.4017334
496 -9.640441 -1.4394186 -10.9544888
497 -2.9812532 -37.5528412 -3.836812
498 -7.5654984 -6.6145816 -0.9420112
499 -2.5326693 -16.3343086 33.0535126
500 4.026485 -10.5135155 26.7931557
501 0.5906271 1.0616988 -4.2740445
502 15.4636812 9.1367331 3.537035
503 -2.6701577 -11.977914 -5.9053618
504 6.1130195 -1.1004422 5.4900851
505 -11.4106016 -24.3115215 -18.7394982
506 3.542938 12.3004017 11.7884112
507 21.1684609 -1.2001518 1.8781934
508 -7.6816688 -6.2322464 14.6544009
509 4.059763 25.2948837 3.2989102
510 0.4994079 3.1523361 20.9639684
511 6.2078266 -12.5097828 17.5708542
512 15.4856282 25.3943157 -2.58163
513 -7.0506954 3.5395844 -6.7703743
514 -6.1453457 -4.0395684 -20.4714012
515 -1.0416302 6.7318802 10.7994433
516 -15.0643177 -1.1423382 -4.0810003
517 4.9167786 -15.2373104 1.2491303
518 -1.5426505 -9.4922838 -6.466753
519 9.2162533 7.8309818 5.2465654
520 -0.7292047 -2.9024342 17.0034466
521 -2.918794 -19.1231422 -5.63098
522 -0.1274073 -16.5763512 29.9896928
523 -1.6214978 -20.1168861 -5.4295144
524 -11.3979569 -21.7053356 -4.0009499
525 -16.7504406 -13.0395937 26.6840878
526 4.9152914 2.9993942 7.3408446
527 8.7226773 2.2913327 -4.5529442
528 19.619751 11.6086722 -2.404295
529 -1.2993289 -1.5288019 26.852007
530 -3.690181 13.539299 -4.5012722
531 -1.5816547 11.9874868 12.8851738
532 2.536757 12.8099365 2.7979267
533 1.8135437 0.5344826 -20.7689991
534 1.7250722 32.8968392 -23.0951214
535 12.4950848 -3.7882829 2.2262414
536 12.3091469 -10.0331602 10.344512
537 -6.4986077 12.1777163 7.5102968
538 24.9124126 29.7293339 -21.6797219
539 0.4292184 3.9385768 -16.1675072
540 -10.9028664 20.4078808 21.3784619
541 16.660677 -8.1117535 -11.8139315
542 15.3076515 -3.0620799 10.245657
543 -6.3458285 8.2936335 -6.0016332
544 6.968061 12.4022694 7.3730707
545 -25.2294998 0.3114246 -15.2163849
546 -2.3018828 8.7686777 -15.8886976
547 -5.9544684 -11.7353535 7.5935622
548 12.3093672 11.5991936 2.0071042
549 3.4727359 10.2209873 5.198668
550 -9.2437687 13.9677896 5.4095025
551 18.1047649 25.906992 -8.5614405
552 7.1116033 -4.9464426 -2.7828667
553 8.8419666 -9.0912819 2.1221047
554 -5.938654 19.0539665 -12.5073023
555 -27.7882557 18.4270993 -42.8746186
556 -5.1871347 -6.4594836 7.1702228
557 5.2059135 8.951831 -8.0521097
558 10.5694838 1.8231628 -6.3184734
559 -4.0831509 4.0414939 -2.7919572
560 10.5340224 -6.6157413 3.5884044
561 -20.2507305 6.8131676 2.2663996
562 -4.2313171 -5.5581789 -10.1096964
563 4.1829796 -1.1203821 5.8772154
564 -21.5690823 -9.2350979 13.5898476
565 -0.3711949 -5.0408196 0.082001
566 1.240315 -5.3222695 -8.1743412
567 4.5974875 -13.4217978 -14.2957182
568 21.8502942 7.7647252 -17.7634182
569 15.7344084 4.872385 16.5420456
570 -20.2838345 -8.1951456 13.0212889
571 -1.4269077 14.4395161 -1.8496476
572 2.9129182 5.9895602 -3.315635
573 7.6226321 -7.9460192 15.3150339
574 -9.3173618 -1.0405381 -2.4266625
575 12.8018132 8.0950689 -0.6351222
576 -6.6210614 -12.0654964 2.9264688
577 -7.7065878 28.2057972 -12.6099301
578 -2.9713708 11.0432615 -7.9253082
579 0.7541344 -1.5220195 2.9875886
580 -9.2141895 16.5557194 5.9718982
581 -3.8078413 -2.5750191 4.7107191
582 -11.1039743 -5.7503538 14.7680455
583 -11.8830052 5.2976685 -8.6801977
584 -11.9238072 4.2869873 -1.6345734
585 -18.4927559 -17.3618031 -0.545117
586 14.3789473 -7.6244536 1.3376961
587 11.3622151 4.6803212 -5.5976353
588 32.9129678 2.6506255 -23.4105682
589 2.1389511 -18.8548738 -18.526125
590 8.2714577 -1.3891593 12.3857117
591 -2.2525413 -6.1216211 9.6716662
592 -8.7655278 -6.6293197 -13.8898488
593 -4.890348 10.4601517 8.7181521
594 -5.196084 -0.4184249 -2.6967521
595 -10.4233933 6.3047829 -28.3664875
596 14.5334711 -5.3242526 2.071065
597 9.8271342 -10.1728029 20.8657056
598 -29.991005 19.5520191 10.6618757
599 -4.2377267 -0.4183429 -4.6884451
600 11.5933218 -6.6421523 -1.0678655
601 7.5195351 -4.2548523 -11.7558432
602 6.3382845 16.3021832 13.0483351
603 -4.589273 -12.3318234 -32.2048111
604 1.1562229 -11.3649693 -2.6960328
605 15.2558727 -7.17171 0.0476489
606 -0.6081246 16.7250328 -10.3617344
607 -24.7730007 12.0439014 17.1813259
608 -0.0897581 -2.0798719 8.1570835
609 6.5294309 12.8282004 -4.7113276
610 1.7717098 13.0131283 -8.9596634
611 -10.5847292 -2.2248514 -28.6273308
612 -10.3930264 18.2002525 5.9257278
613 6.4735217 -18.0215015 4.8287182
614 2.3863177 -1.5830088 -2.9738854
615 4.3437629 -4.3183127 -6.1382308
616 -3.4963119 -1.9533986 10.2704706
617 -4.295959 -13.4723139 7.9041964
618 9.5116606 9.6604529 9.3087425
619 -10.9879542 5.704083 6.5028277
620 -4.4566121 3.3341015 -1.6609358
621 -12.5713082 -7.102457 6.7230039
622 -6.3878403 13.0172424 11.4834576
623 -21.3916645 12.5194302 -1.2037553
624 10.2013807 11.4565439 -11.2647066
625 -14.9390498 -7.6640873 0.5202433
626 16.9604454 -0.9267224 -3.8678084
627 0.7455201 16.2871132 -13.0342131
628 23.2212753 6.3479476 -5.0061336
629 -30.6167984 -15.488287 -14.997159
630 -8.704216 -7.6257453 -18.618351
631 -0.945029 15.9533006 3.9845148
632 -1.5715478 9.6880293 -5.274148
633 -1.4308657 -13.5522423 2.4609363
634 -15.4886189 3.3282912 -3.2816036
635 -4.1686907 -1.1016421 -6.6914563
636 -7.6686292 6.4671917 -14.8552648
637 -11.0955973 -2.6729844 -10.3259583
638 17.5051804 10.6877098 8.4088469
639 -8.1674872 -28.6418057 1.323511
640 -11.104744 -1.619404 29.20961
641 0.9834442 -0.7825378 11.270175
642 -0.9714718 1.8714702 -19.1318817
643 6.544889 -24.1923199 0.9865892
644 -0.0904721 -4.6756931 -22.5303688
645 -5.1584711 4.2264967 -13.347806
646 26.4943104 18.9377576 1.9296454
647 -7.8700118 12.6852646 -2.8353045
648 -3.5300708 19.4781571 2.8496016
649 1.1429671 19.5886574 9.7209254
650 -9.9844466 3.3239205 5.1764746
651 17.2826958 0.9485098 -14.90417
652 6.4846716 4.2846289 -12.3906441
653 2.3872686 -11.6529246 -7.2488389
654 3.9094952 -10.9544116 -4.5078922
655 13.2105694 5.3542619 0.08697
656 4.2947507 19.6252594 -19.562479
657 -6.080462 -8.1776667 -6.3463488
658 1.1336962 -8.4720755 0.0172105
659 -0.9294024 24.983429 -2.0716653
660 -4.4510918 -14.9480964 -7.1559243
661 -3.0638289 -17.9566384 0.2186541
662 6.2443981 -12.6605635 -4.2025881
663 8.4655085 -15.0175543 -13.65973
664 3.1013341 -18.3794136 7.1466518
665 7.5424457 -5.3327236 10.1377297
666 -9.843483 -39.0232315 7.6959186
667 14.949151 -9.4462118 12.8998366
668 1.5435361 -12.2820959 6.1826291
669 -13.6462612 -8.8814096 -16.0740166
670 -4.3675366 -12.3970299 -9.9352388
671 6.266161 0.1683297 12.4039316
672 -6.5206852 -11.7693291 -9.6516781
673 -0.2161426 2.1392212 -12.967166
674 -12.8277998 -18.911482 -2.8685448
675 -10.9634658 6.2753039 10.2901163
676 29.099741 -4.4924054 6.5923314
677 4.2064009 9.5658493 -7.9508448
678 -3.0345314 -3.936341 7.2738643
679 -9.1207552 -1.0529021 14.870864
680 21.005085 3.5342934 7.2762175
681 -11.894559 -8.1510115 -8.4520436
682 14.5224562 3.3895197 7.7918272
683 5.603703 10.062088 10.6533976
684 -21.5750313 -9.3556948 2.7196799
685 8.8554288 2.4818449 4.2688298
686 -8.729722 -0.6264586 -8.5921517
687 13.7583504 8.0559378 -5.0026479
688 -7.033916 -13.8169079 14.0820665
689 -9.197155 -4.4446149 11.2990971
690 -7.1200757 14.8741094 -2.9156216
691 -12.1220856 -18.2422753 -1.4241946
692 10.7628994 5.6274491 1.4268974
693 1.2957642 -1.6256095 2.2674127
694 -0.8840914 5.5732384 15.6004019
695 4.3539343 3.8481458 10.6628886
696 3.8906344 -0.2528752 -5.5902214
697 -11.2743607 -2.6327355 -9.1246014
698 -2.7360974 2.985365 -3.5466676
699 -0.7234028 -13.5506583 16.3938046
700 -6.1294169 20.446394 11.0628691
701 5.2066131 -2.4445369 -1.3663145
702 -15.6582022 9.2752733 6.5829692
703 9.003089 14.1967278 -7.6783505
704 19.6486225 15.1128311 -0.0859495
705 -8.1145039 -1.5795088 -20.2211552
706 3.6232698 -16.019516 9.7892037
707 -7.9982662 -10.7174711 -11.5586663
708 8.7577019 15.8797846 0.0802228
709 -18.6791706 12.7413054 -10.0858774
710 -13.4974375 11.6356564 4.2300649
711 14.8170128 9.9692784 -3.6342652
712 -0.0016464 -7.4779296 -20.903618
713 -6.2235675 -4.1591411 18.2131233
714 12.6665783 18.7422638 18.4841442
715 -5.8494592 -5.5630374 10.4896136
716 -10.6302624 10.7198448 -0.515555
717 19.967413 -13.8958216 -2.9788072
718 -17.7489262 -0.4962523 -15.0818033
719 1.7770571 7.2282801 1.4178566
720 -2.4056482 8.0636168 -3.4665604
721 -2.0225658 -8.5277844 -24.4867459
722 25.0965118 10.89923 14.0379667
723 14.7152033 14.7550268 -9.5530319
724 7.3303867 0.856523 1.6898979
725 8.8155241 -5.7331362 -2.2441495
726 15.7114535 -1.8809816 17.1109371
727 17.0925446 -11.8673202 -5.4925499
728 -1.0346258 9.9086858 -5.8294144
729 -9.6643629 -5.6646056 -4.9282914
730 -23.5148392 1.3895518 9.7665615
731 2.5243523 5.7158013 0.7977631
732 8.853776 -0.3693338 -13.5346022
733 -9.2638941 -9.3860006 -0.3808864
734 -2.2994497 5.5329795 8.9078474
735 -13.8289118 1.9586352 3.4513934
736 2.2206705 -0.3626756 -15.6280432
737 0.9128318 -1.9668124 -1.540727
738 1.0002892 8.9363776 -9.9399348
739 7.6650911 0.1022139 20.4083023
740 -2.4974435 4.5619207 -7.3581009
741 15.7185335 3.6438465 -5.5038867
742 18.6295548 -0.1986425 3.3091807
743 0.1850287 19.8409042 20.2159157
744 -23.8192272 6.1342564 -5.3443027
745 -9.4097548 4.580626 2.8152666
746 -8.9392662 1.1124924 11.1019383
747 -0.9270274 21.8801042 -12.1809683
748 -15.5356369 16.9059486 15.5196915
749 -0.6205551 -23.9948998 -1.2293947
750 -12.517025 -8.7288761 5.8504726
751 -2.0381517 4.4455648 -3.0806537
752 -4.5279484 10.2435255 -12.4752255
753 -3.8776034 -13.7633372 2.4029586
754 -5.0898089 9.5325175 -0.0599978
755 0.480827 8.9229794 22.2296257
756 19.2541466 -19.54138 15.2849808
757 -6.365365 22.0496197 2.9701688
758 -10.6916399 1.6841101 10.1363525
759 -4.9179722 3.3825491 22.6073303
760 6.5865875 -4.7303543 -5.2799525
761 5.5222001 -6.0499444 -18.9880048
762 -5.1216793 -2.7255695 -3.9503468
763 -2.690058 -3.8146546 2.9319676
764 10.0393229 -7.6541891 16.9400464
765 1.5257895 -14.0167761 -2.3948939
766 5.8133054 -8.0858936 -15.2096701
767 7.3583799 -12.9235716 -24.446867
768 8.5235844 13.9420358 7.3726211
