clear
# --------------------- VARIABLES-------------------------
variable        NSTEPS          equal 1200000
variable        THERMO_FREQ     equal 10
variable        DUMP_FREQ       equal 10
variable        TEMP            equal 300.000000
variable        PRES            equal 1.000000
variable        TAU_T           equal 0.100000
variable        TAU_P           equal 0.500000
variable        LAMBDA          equal 1.2500000000e-02
# ---------------------- INITIALIZAITION ------------------
units           metal
boundary        p p p
atom_style      angle
# --------------------- ATOM DEFINITION ------------------
box             tilt large
read_data       conf.lmp
change_box      all triclinic
mass            1 16.000000
mass            2 2.000000
# --------------------- FORCE FIELDS ---------------------
variable        EPSILON equal 0.020000
pair_style      lj/cut/soft 1.000000 0.500000 6.000000  
pair_coeff      1 1 ${EPSILON} 3.300000 0.500000
pair_coeff      1 2 ${EPSILON} 1.100000 0.500000
pair_coeff      2 2 ${EPSILON} 1.100000 0.500000
bond_style      harmonic
bond_coeff      1 4.000000 0.987224
variable        ANGLE_K equal ${LAMBDA}*4.0000000000000002e-01
angle_style     harmonic
angle_coeff     1 ${ANGLE_K} 106.410905
fix             tot_pot all adapt/fep 0 pair lj/cut/soft epsilon * * v_LAMBDA scale yes
compute         e_diff all fep ${TEMP} pair lj/cut/soft epsilon * * v_EPSILON
special_bonds   lj/coul 1 1 1 angle no
# --------------------- MD SETTINGS ----------------------
neighbor        1.0 bin
timestep        0.0005
thermo          ${THERMO_FREQ}
thermo_style    custom step ke pe etotal enthalpy temp press vol ebond eangle c_e_diff[1]
thermo_modify   format 9 %.16e
thermo_modify   format 10 %.16e
thermo_modify   format 11 %.16e
# dump            1 all custom ${DUMP_FREQ} dump.hti id type x y z
fix             1 all nvt temp ${TEMP} ${TEMP} ${TAU_T}
fix             mzero all momentum 10 linear 1 1 1
# --------------------- INITIALIZE -----------------------
velocity        all create ${TEMP} 7858
velocity        all zero linear
# --------------------- RUN ------------------------------
run             ${NSTEPS}
write_data      out.lmp
