clear
# --------------------- VARIABLES-------------------------
variable        NSTEPS          equal 500000
variable        THERMO_FREQ     equal 10
variable        TEMP            equal 1200.000000
variable        PRES            equal 1.000000
variable        TAU_T           equal 0.100000
variable        TAU_P           equal 0.500000
variable        LAMBDA          equal 7.5000000000e-01
variable        ZERO            equal 0
# ---------------------- INITIALIZAITION ------------------
units           metal
boundary        p p p
atom_style      atomic
# --------------------- ATOM DEFINITION ------------------
box             tilt large
read_data       conf.lmp
change_box      all triclinic
mass            1 118.710000
# --------------------- FORCE FIELDS ---------------------
variable        INV_LAMBDA equal 1-${LAMBDA}
variable        EPSILON equal 0.010000
variable        INV_EPSILON equal -${EPSILON}
pair_style      hybrid/overlay deepmd graph.pb lj/cut/soft 1.000000 0.500000 6.000000
pair_coeff      * * deepmd
pair_coeff      1 1 lj/cut/soft ${EPSILON} 2.527854 0.500000
fix             tot_pot all adapt/fep 0 pair lj/cut/soft epsilon * * v_INV_LAMBDA scale yes
compute         e_diff all fep ${TEMP} pair lj/cut/soft epsilon * * v_INV_EPSILON
# --------------------- MD SETTINGS ----------------------
neighbor        1.0 bin
timestep        0.002
compute         allmsd all msd
thermo          ${THERMO_FREQ}
thermo_style    custom step ke pe etotal enthalpy temp press vol c_e_diff[1] c_allmsd[*]
thermo_modify   format 9 %.16e
# dump            1 all custom ${DUMP_FREQ} dump.hti id type x y z vx vy vz
fix             1 all nvt temp ${TEMP} ${TEMP} ${TAU_T}
fix             mzero all momentum 10 linear 1 1 1
# --------------------- INITIALIZE -----------------------
velocity        all create ${TEMP} 7858
velocity        all zero linear
# --------------------- RUN ------------------------------
run             ${NSTEPS}
write_data      out.lmp
