LAMMPS data file via write_data, version 2 Aug 2023, timestep = 200000, units = metal

1296 atoms
2 atom types

0 24.31110058 xlo xhi
0 24.31110058 ylo yhi
0 24.31110058 zlo zhi
0 0 0 xy xz yz

Masses

1 16
2 1

Atoms # atomic

741 2 4.057609289693868 0.44391559906635014 0.6556817490330064 0 1 0
155 1 3.4218287033116375 0.002324910407416132 1.176681672808878 0 1 0
968 2 2.2323039325625436 0.9289945316795121 2.5575983703548353 1 1 0
967 2 2.0147076549011396 2.397135019444023 3.040768367602787 1 0 0
268 1 1.6090496438440571 1.5411389439406398 2.8672202471118062 1 0 0
607 2 1.4371874378068517 0.25222865470704336 0.23438651425209414 0 1 1
88 1 0.8065140024243007 0.6190006208069673 23.937354427320244 0 1 0
390 1 5.630132182053939 1.503113320357849 0.030272770378308562 0 0 0
1212 2 6.509690634034492 1.1482415694999957 0.30207767319843387 0 0 0
1251 2 5.123024315971143 2.5068204543548984 1.3507922440986684 0 0 0
410 1 5.270136998550106 3.2860272404310726 1.9815393809125144 0 0 0
386 1 7.804973674883136 0.10766515714086335 1.110841796952939 0 1 0
11 1 8.119495163094847 3.530449734028648 2.8087918192356396 0 1 0
1204 2 8.296464033721703 0.04887723778589196 1.9409627322408538 0 1 0
453 2 8.48442552385791 2.7771536159083765 3.2453542535090163 0 1 0
256 1 9.299027808435538 1.1671853139026942 3.4928993244081847 0 0 0
944 2 10.228985015618855 1.0192440378239267 3.2590443739747474 0 0 1
350 1 11.623004026001322 0.9053104687169464 1.4609707019563722 0 1 0
943 2 9.267383162310454 1.129122455306903 4.488893311569708 0 0 0
585 2 9.711838555735023 2.9312464196762904 0.6940491526512627 1 0 0
1132 2 12.283554605992782 1.6595052875237843 1.444067869303122 0 0 0
99 1 14.031018907321366 3.0163200610113527 1.2153386679472806 0 1 1
629 2 14.629966856006064 2.3184694992153343 1.0570830960502822 0 1 1
630 2 13.992821990753505 3.135052192551199 2.212547847547271 0 1 1
674 2 14.758113753560417 4.084642730050727 4.237846271892987 0 1 0
214 1 15.189453303969092 0.699548509164655 0.29468184177127066 -1 0 1
121 1 14.14958962843437 3.4168602237291195 3.9253974395935396 0 1 0
985 2 19.13067648288863 2.2549520785386337 2.6925334807986063 0 1 1
277 1 19.40912563891075 2.2531133786441124 3.602658431305375 0 1 1
986 2 19.12398060237445 1.4062951923341325 4.047150157993534 -1 1 1
20 1 18.69960532073602 2.4409675020293347 0.5511201600774384 0 0 1
471 2 18.195322299933373 3.2965633697256993 0.6553867094574779 0 0 1
472 2 18.256306645218135 1.9690751997993534 24.11299053954751 -1 0 0
859 2 15.873962268552175 0.8954386883181311 23.928256729725017 -1 0 0
574 2 15.97279453149614 4.379086621493302 1.3095925568051954 0 0 1
849 2 20.442228046068344 2.4973916494806323 24.264621955081005 0 0 -1
1209 2 0.05353384902714853 2.5198708849710583 1.0443036686163572 1 0 0
389 1 23.568544403348024 2.8907975158594783 1.3916245637787186 0 0 0
1210 2 23.557011950614786 2.484551138705369 2.2967596220791013 0 0 0
533 2 21.34703644716437 2.011557349268995 3.6007471207468402 0 0 0
51 1 22.296214987767435 1.8197917006372475 3.6667482554570574 0 0 0
534 2 22.464989078724706 0.9246454818117498 3.9138104940079868 0 0 0
1020 2 2.4474871344344975 4.7278853963244165 1.859574578003525 1 0 0
294 1 2.862517514236701 4.303344450646844 2.599623192457582 1 0 0
1019 2 3.754332079655421 4.010410291571676 2.259012419770602 1 0 0
224 1 0.9920061069322885 5.049145276850759 0.1057215118495035 1 0 0
770 2 0.8766507860251671 7.446986591348946 3.0504872849535545 1 0 0
1252 2 6.223597408916434 3.4855720614771433 2.0804180121863265 0 0 0
1065 2 7.245568566129568 6.866826602330472 0.8312834917928287 1 1 0
317 1 7.8042870023657 7.28558630633542 1.5517085302205074 1 1 0
723 2 6.57376954510663 6.943264541633041 2.823663977306089 0 0 1
1066 2 7.5730270804205135 8.231446335679692 1.3919366556228925 1 1 0
454 2 8.311350288215516 4.25107169628027 3.406010339371141 0 0 0
1060 2 9.516581015856632 6.306089868072801 1.7778335931603582 0 0 0
314 1 10.434611535628317 6.047039735171726 1.925259615768329 0 0 0
1059 2 10.835641723458904 6.905698214904432 1.680485641197903 0 0 0
1177 2 11.39144079803739 8.639245218134116 3.1838679252440025 0 0 0
373 1 11.270279537915203 8.729385090508844 4.1353942585783265 0 0 0
586 2 9.808462200381298 4.367952872010359 0.6241134072249227 1 0 0
615 2 14.608505045360936 6.243212811597213 4.526722364922891 0 0 0
244 1 17.112925952936383 6.553537007276367 3.0018980424701374 0 0 0
482 2 15.645063851167626 7.455565874882253 3.217880625362419 0 1 1
919 2 17.453752017152873 5.9102687623572026 3.6707567225316797 0 0 0
71 1 16.74314364404369 4.805274121665696 0.9331400713929187 0 0 1
920 2 17.384176658128524 6.281567819244539 2.149069370419184 0 0 0
882 2 19.81063476753838 6.989514690204633 4.060340804519516 0 0 0
225 1 20.24672488178148 7.428561997378686 4.787646069033748 0 0 0
614 2 22.181436448489695 5.520949410935422 1.0530233925753743 0 0 0
91 1 22.219116958068803 5.43728749749859 2.0144250389516962 0 0 0
900 2 17.377264576160282 7.715814062352197 23.746747999477826 0 0 -1
879 2 0.31779180775146704 4.639092619043165 0.6584917576409816 1 0 0
613 2 22.691545719756324 4.625706509906121 2.1270008992497753 0 0 0
769 2 23.945398416631498 6.754880428318392 2.571347441933343 0 0 0
169 1 0.03205185660046926 7.146594791649531 3.3535758647849154 1 0 0
808 2 23.106054301862027 8.453284463287329 3.8257004717484175 0 0 0
1012 2 2.745947354727773 8.999367147415876 2.3947544535915335 1 0 0
290 1 2.89916813206342 8.367027374858894 1.6905438483356616 1 0 0
1011 2 2.791045084641026 8.77278005510151 0.8402257913941981 1 0 0
545 2 5.4187742186096175 8.973548737162897 1.719094439761665 0 0 0
50 1 2.2845010988353844 11.422425093054189 3.4715042211205422 1 0 0
1068 2 0.6810962150573807 11.087478622067925 2.903846830684675 0 0 0
318 1 24.04415419648176 11.131072191089084 2.6650256066724927 -1 0 0
531 2 2.4828648286947663 11.975481969262473 2.7201343335826813 1 0 0
546 2 6.109981078698152 10.364379550694556 1.5981321316644839 0 0 0
57 1 6.2466330251568 9.42156460044126 1.3634930922091468 0 0 0
551 2 7.350431780656718 12.589862032667007 0.9110488838294097 0 0 0
426 1 5.579107458722034 12.040127433247175 2.0101745398792104 1 -1 0
1178 2 12.109826590352634 8.872161079874076 4.538352491406264 0 0 0
388 1 10.66017158351842 11.023526565149577 0.43746665887477665 0 0 0
1208 2 9.77613600627092 11.449159286453604 0.3021865242147201 0 0 0
982 2 10.180690862944315 10.432812492776682 4.149015943677402 0 0 1
1038 2 11.237964496748022 9.416800970491295 1.081380754477313 0 0 1
25 1 14.717473433478542 7.6665246826204525 3.456460255469843 0 1 0
481 2 14.322362065881062 7.5366058862777034 2.59845207901094 0 1 0
364 1 14.254881793026517 8.462321845630125 0.7604317606229563 0 1 0
947 2 14.299787168652403 9.413134583081629 3.670173185435515 0 1 0
1240 2 18.389414421097673 8.391281121118045 2.797117247767045 -1 0 1
234 1 17.973379830561914 8.41922134131604 24.03728980860795 0 0 -1
404 1 18.17939921435485 9.149544737115816 2.277805468694399 -1 0 1
59 1 20.967560076468 10.157839316506506 2.3698644445679764 0 0 0
899 2 17.951044791672945 8.670335091531424 0.6870834521336732 0 0 0
549 2 20.089414715816115 9.8436015517734 2.1833663721295515 0 0 0
550 2 21.16816079095359 9.754130911607 3.1919759920875364 0 0 0
1014 2 16.701946321493203 12.323508874352425 2.320726306618264 0 0 0
744 2 19.813637128899824 8.410324891045612 23.460979281386308 0 0 -1
1239 2 17.69969138518226 9.899687368068012 2.7358475212587647 -1 0 1
807 2 21.730290093371522 8.35420655231249 4.523203951582862 0 0 0
311 1 22.540742575286945 10.41633358784364 0.2956543287585947 -1 0 1
1053 2 22.032026037692162 10.339072902178822 1.1172118854167739 -1 0 1
1054 2 23.41373516930261 10.219999258050178 0.7476947298338855 -1 0 1
1067 2 23.51449367974523 10.59732147559379 3.290833056643803 -1 0 0
743 2 21.25046280712707 8.915413762169475 23.474535993412335 0 0 0
1184 2 1.9836309220999966 15.10440137731596 2.3126878771082318 1 1 0
1183 2 0.7060657459565995 14.863679797447288 3.0927521371468583 1 1 0
376 1 1.689209708233471 14.776050404852027 3.1434021864914534 1 1 0
48 1 3.012032313038472 12.580828179628837 0.7624667879682923 0 0 1
527 2 3.0785472080673766 11.752181734347799 0.3536630821248907 0 0 1
528 2 2.9909106493166417 13.123534471887162 24.27799275583518 0 0 0
497 2 4.565786414054138 15.742341029934762 1.0581121992928815 1 0 0
1284 2 4.804738752882867 12.458117267789335 1.6038695497779907 1 -1 0
451 2 8.16466264907513 13.85973934533375 3.200183174111452 0 0 0
452 2 7.314775008310355 14.483998199068642 2.117047971347465 0 0 0
10 1 7.217369179762159 13.988399524778574 2.9777795750102842 0 0 0
1283 2 5.99368664851635 12.72854023029936 2.6206602257476557 1 -1 0
33 1 5.520264478045719 15.953597214176817 1.0801581123914905 1 0 0
941 2 10.765674195166309 13.215868287437354 3.4431657987552904 0 0 1
255 1 9.879752403174045 13.389618952076198 3.74383619470417 0 0 1
1176 2 11.555644226542784 11.601415595097738 2.037903291597198 0 0 1
1077 2 10.797423851824236 17.515967926344995 0.3275979019407223 0 0 0
1078 2 10.008426765789595 16.276156794717462 0.418616163431451 0 0 0
323 1 10.665185076103935 16.71660826227985 24.13791901660041 0 0 -1
1175 2 12.629672760434472 11.610693053190484 3.108723396077791 0 0 1
1080 2 14.154967615758682 12.393190804210404 24.17062051631644 0 0 -1
372 1 12.119362033947668 12.18934505621377 2.573562522024755 0 0 1
324 1 13.886431258148093 13.216318864453271 0.3229021143176438 0 0 0
1079 2 13.281505456772274 12.851587025239914 1.0385903128424563 0 0 0
1123 2 15.565330608273621 13.67905572808572 0.8746302420857728 0 0 1
727 2 13.576862977349029 16.358498161421544 4.748096917962511 0 0 0
148 1 14.009090075888688 15.6445044809256 4.23018822880523 0 0 0
779 2 15.181285491031984 16.544557126137413 2.7050589641179075 0 0 1
346 1 16.351318556752624 13.916592866335165 1.3752610243776995 0 0 1
780 2 15.945602884609814 15.632714253495276 1.7346530489672318 0 0 1
643 2 19.332253446639996 14.072339051536098 2.9399786241655095 0 0 1
644 2 20.126449688317162 14.719911234572951 4.006557125178501 0 0 0
106 1 19.212876365531663 14.709446253643923 3.705344636786531 0 0 1
208 1 20.96763669449719 16.312742022191163 0.7052675095058336 -1 0 1
848 2 20.617144344895518 15.855978635513257 1.5176595894956304 -1 0 1
1124 2 17.004738132700375 13.885525979618713 0.6514255028925113 0 0 1
847 2 20.66105476160074 15.768666576871905 24.269367807802375 -1 0 0
174 1 15.894933730736728 16.568811473591687 2.0281956746395857 0 0 1
87 1 19.58133911317996 12.901806538902008 1.9413098129882498 -1 -1 0
606 2 20.042437820220588 12.036814699076317 2.133066191334572 -1 -1 0
826 2 22.895321758688937 13.555443702814141 0.7649611750971866 0 0 0
605 2 18.9540977641909 12.738109524342184 1.1993546197061482 -1 -1 0
109 1 23.410272577234103 13.747687777010023 2.509950422668975 -1 0 1
649 2 23.62447250831107 12.888718779864178 2.916895867474936 -1 0 1
650 2 22.778543665293803 14.291417974609269 3.00877454704737 -1 0 1
566 2 2.0158234879408914 15.962635387264237 0.03085286330602724 1 -1 0
67 1 2.8368031621336356 16.25007082499371 0.5084286209366075 1 -1 0
875 2 1.996983084974573 19.47359399367727 2.507668036891276 0 0 1
565 2 2.91283555099347 17.227928033856944 0.40646218458761846 1 -1 0
1296 2 3.033622213294963 19.86343533115989 0.5359752485234898 0 -1 0
1295 2 1.6356018254948703 19.525101551471263 24.160544294924463 0 -1 -1
432 1 2.2821527317730834 19.280473794163314 0.5346666118673666 0 -1 0
222 1 2.120859097766509 19.770239041931138 3.4126722560866942 0 0 1
498 2 5.530623975109063 16.781566222611822 1.5778635374537897 1 0 0
407 1 5.821591452192181 18.356365058748953 2.510601817145312 1 0 0
1246 2 5.4201734529641 19.02019869753882 1.870336026802844 1 0 0
1245 2 6.775696954272924 18.444602079449204 2.329902581473127 1 0 0
320 1 8.718241901116668 18.247944904613277 1.7363386002417944 1 0 0
1071 2 9.632517856187132 18.459844891161346 2.0766304904858615 1 0 0
1072 2 8.757559636599687 18.45191601264604 0.8209859802706805 1 0 0
138 1 11.393059551034096 18.489005116539772 2.3483556669663788 0 0 1
708 2 11.491979813581628 18.176884315678418 3.2430900427995017 0 0 1
707 2 11.52648510641824 19.430186427767616 2.4504311229415405 0 0 1
333 1 9.901647621247 20.9854864773098 4.253295678751283 0 0 1
1179 2 15.625087147358197 17.73364119014887 0.6459368563232745 0 0 0
792 2 14.629883474289214 19.792838375691904 0.7667173104750535 0 -1 0
374 1 15.441560204699778 18.37859251729616 24.235563294639796 0 0 -1
685 2 17.24098565802398 17.666821732593736 3.038295225167483 0 0 0
356 1 19.528714153953818 18.81571166554831 0.22778237037525173 0 0 1
1143 2 19.658678687009914 17.89297906512169 0.5629800064924964 0 0 1
127 1 17.790939046228136 17.5806404149841 3.8229210267559885 0 0 0
686 2 18.01569066100251 16.657518683139212 3.9092631535570863 0 0 0
640 2 20.078686113506503 17.926929414853202 3.8616906382085245 0 0 1
639 2 21.261319233377897 18.79952602041192 3.222704685239827 0 0 1
104 1 21.015188068946152 18.055322592009222 3.795037285553822 0 0 1
663 2 23.369108105160493 18.19349520926503 1.3826492585529813 0 0 0
369 1 22.978509685538064 19.701697701939906 2.399042703366836 -1 0 1
1170 2 23.86518045039179 20.00471615552077 2.5479155856426234 -1 0 1
438 2 21.71538147256291 16.220384678989973 4.078175028272209 0 -1 0
664 2 22.50348774976028 16.956294133605905 0.9087515930827199 0 0 0
116 1 23.431136028541086 17.39137480252092 0.8335257006300255 0 0 0
742 2 3.882832444323148 23.70023932836691 1.8193672622619272 0 0 0
339 1 4.350740046279897 23.351797193186673 3.9147586879334657 0 -1 0
999 2 1.5848838709195752 23.09571811304284 3.7712079191323222 0 0 0
284 1 0.918946477107429 22.530699285862674 3.4222528552511946 0 0 0
1000 2 1.1758534193883892 21.626620688758525 3.650068255019559 0 0 0
1110 2 5.135494882194168 22.717822706777433 3.950609121909389 0 -1 0
492 2 5.966772294656444 20.85929314488629 0.9416429969609972 0 0 1
1229 2 7.063535408739876 21.683936196380262 2.950711063212425 0 -1 0
399 1 7.054577051157456 21.865733445544564 1.967009576758899 0 -1 0
1230 2 7.227493060414591 22.77669926620559 1.7368689149886887 0 0 0
30 1 5.218025439114169 20.369059188091054 0.49261735523006644 0 0 1
126 1 10.227143039223192 20.91917056726913 1.486845542900979 0 0 1
683 2 10.579651759462404 21.73500630956806 1.0220988344486615 0 0 1
1203 2 8.511454558468934 0.07160087481073209 0.4294830565230898 0 1 0
1097 2 9.888197373863033 21.126231670092146 3.2763406744985137 0 0 1
1131 2 12.215305894518336 0.18951022507984752 1.0953048968149863 0 1 0
684 2 9.518710747686235 20.60585176230627 0.9619877151184059 0 0 1
541 2 15.651249349786248 23.422975332226393 3.2682397468528257 0 0 0
289 1 12.442633821884732 22.61247702171952 0.7418127018563314 0 0 1
180 1 14.847572277153645 20.620348941902908 1.2357901801565963 0 -1 0
1009 2 13.200325447846636 21.981765280524364 0.6631476474987787 0 0 1
55 1 16.225966659855786 24.207082179276327 3.0652479449746886 0 0 0
791 2 15.58858116248163 20.431190453606295 1.787594873057101 0 -1 0
1010 2 12.575211303156815 23.10571332295665 24.262621536223634 0 0 0
542 2 15.921369938235824 0.007931805874620845 2.1518147391119364 0 1 0
173 1 19.28326166395323 21.22810314325141 1.2880430943892982 0 -1 1
777 2 19.231097017114802 20.298785943308573 1.3223488970878312 0 -1 1
778 2 18.812137902708486 21.497914326114834 2.0913954434598825 0 -1 1
784 2 20.936638680685682 22.259321904510287 1.5027970733437555 -1 0 1
1169 2 22.687128779383848 20.52509023467506 1.9966022835574653 -1 0 1
176 1 21.876337039320212 22.430868861768765 1.5488652148793924 -1 0 1
783 2 22.1171419900406 22.94890659037329 2.3243085728909887 -1 0 1
1018 2 23.81312152345731 23.13203348301143 3.7343151542381503 0 0 0
293 1 22.912133252117187 23.555908958539245 3.7111179355015516 0 0 0
608 2 0.06866799484296124 0.00493599398919592 23.696933076299654 0 1 0
1063 2 1.0378548036573862 1.2276708580965443 4.7494082209456545 1 0 1
316 1 0.8430520501654432 1.0357282991786823 5.694995582355464 1 0 1
1064 2 1.111521864496521 1.7945403624438732 6.254076232269138 1 0 1
653 2 2.5973065840775464 3.3016340917071516 6.946774318740044 0 0 0
111 1 1.596804444961977 3.1582578443535487 6.975650460070432 0 0 0
654 2 1.2646112134161447 3.768874554086299 6.259278321879722 0 0 0
149 1 4.9054114254437255 23.988731613552147 7.3974300796045505 0 0 0
730 2 4.877823614640939 0.6197635568373661 7.1999049347226025 0 1 0
251 1 5.203728486764897 1.6527387338797326 4.374960111204544 0 1 0
726 2 4.396156271381161 2.6729265125020945 5.908755445292754 0 1 0
934 2 4.952846613345147 0.732581064843901 4.209770647197114 0 1 0
933 2 5.562533449460465 1.929501341807208 3.564642741509645 0 1 0
147 1 4.140479322038467 3.0079808342617698 6.726923752905565 0 1 0
725 2 4.56625286857167 3.837662813144347 6.8663717345493644 0 1 0
468 2 9.301221666530843 1.3930794353471703 6.8042933844879885 1 0 0
18 1 9.413359106114742 0.7127182270261289 6.136912808097195 1 0 0
185 1 8.95797072561032 2.5236201628919117 8.240473686214985 0 0 0
801 2 9.753654170907222 3.0531921881247777 8.416364645807962 0 0 0
467 2 10.215416130875544 0.13633636764084822 6.295983018290226 1 0 0
1129 2 7.621156065865118 3.9584419647122693 8.915406621567136 0 0 1
673 2 14.221453075153802 2.680850764312959 4.5503229056171595 -1 1 0
100 1 13.756574433832979 1.0416497880472226 5.526730504267843 0 0 0
632 2 14.394434109154332 0.7099893217504253 6.1806927580220945 0 0 0
1265 2 18.467447718078645 3.818802205733988 4.084217543441466 0 0 0
417 1 18.324155230353085 4.583846612442627 4.673338752009411 0 0 0
184 1 17.381135491981222 3.1132474935355825 6.916170658863048 0 0 1
799 2 16.53731738024147 3.427487022755231 7.112513583886077 0 0 0
997 2 22.929060970285175 3.09227763697677 6.368413850710735 0 0 0
283 1 22.957028891517943 3.643318198651802 5.542920093111235 0 0 0
998 2 22.72447452016582 2.978999459341109 4.857248395535631 0 0 0
568 2 3.56264102714381 5.301873477701355 4.199799924738313 1 0 0
1233 2 0.4710516672704359 6.04403448066055 4.675134998250047 1 0 0
401 1 0.5425147062830711 5.513747193396702 5.517928814655224 1 0 0
1005 2 2.6155666080671454 6.138311363590644 7.734687285682729 1 1 1
68 1 3.886735643983761 6.091003899953015 4.690245293246809 1 0 0
828 2 3.5773777414200896 7.852410213320496 4.924334564367173 0 0 1
589 2 1.8258992491021242 8.430146280879034 7.581547907444099 1 0 0
287 1 1.7091668078573137 6.4847013938587565 7.777643166780692 1 1 1
1006 2 1.2053094249640703 6.1676345905425745 7.057248244126056 1 1 1
146 1 6.254431120971428 7.088132769073691 3.7630385650921774 0 0 1
724 2 6.197947879072027 8.038984186156052 3.8189258666268646 0 0 1
1282 2 5.252038098010097 6.118292376945782 7.471810815183688 0 1 1
567 2 4.744998214280844 6.3355189069794 4.272905750347097 1 0 0
617 2 6.809360326637068 5.965161541969778 5.268109058101626 1 1 0
1281 2 4.228770858471586 5.901538970598772 6.414145286148043 0 1 1
1130 2 7.21815421897477 5.032069668956393 7.747283356938243 0 0 1
93 1 7.3376310505765705 5.545549532511787 5.95294494649005 1 1 0
618 2 8.262005270145748 5.736643240117699 5.91358328844807 1 1 0
839 2 10.27712501304498 6.8263049478352436 5.12824368964096 0 0 0
840 2 10.486638636423718 5.465624872019971 5.9331166021161215 0 0 0
204 1 9.932217539245427 6.292342731268826 5.831877123549803 0 0 0
987 2 10.214729437356812 7.243246762252904 7.354820389359201 1 0 0
278 1 10.107711232650324 7.860405164659594 8.135693626416366 0 0 0
988 2 10.457159709466486 7.334696893924052 8.908034562699676 1 0 0
800 2 17.76622403747808 3.5181335249899246 6.084764544046901 0 1 1
554 2 12.424524619626247 3.5794118882775603 5.421021042037313 0 1 0
1267 2 11.86020599113167 4.108755595032832 7.884024394345372 0 0 0
92 1 14.698165616761827 5.504321602826929 5.168271927698191 0 0 0
553 2 13.06112469898548 4.913257681986922 5.823841221835218 0 1 0
61 1 12.347960517310787 4.288259258505538 6.086980321544336 0 1 0
881 2 19.687365947006324 7.2703101565562 5.57080170875219 0 0 0
1266 2 19.258636975834577 4.691568782491663 4.880525501058185 0 0 0
274 1 16.229414281718675 6.583725603584415 7.457597952328125 0 0 0
980 2 16.312047960699886 6.042224647964381 8.233984194469071 0 0 0
979 2 17.083786352353506 6.487362902019959 7.0635682913077 0 0 0
433 2 19.104627349596097 7.597960946393595 7.708811321283236 0 0 0
1 1 18.953264985141004 6.878321172216018 7.1240274665603485 0 0 0
1083 2 20.643804392344553 4.383807819324094 7.866962566906768 0 1 0
434 2 19.67606671112004 6.227325350295396 7.360884445529578 0 0 0
1234 2 23.983360382843667 5.059035142759649 5.449056229186715 0 0 0
326 1 20.636004431299387 4.856299030452442 7.044994562456163 0 1 0
1084 2 21.010526463863428 4.266467067430274 6.351984483942362 0 1 0
532 2 2.194337382372612 11.976993507854093 4.314642381911749 1 0 0
827 2 4.091847448767498 9.175819095607817 4.400400518489206 0 0 1
198 1 3.479537451535307 8.80122545550163 5.08478732844376 0 0 1
79 1 1.9003901716464173 9.39122259467777 7.3721647836171025 1 1 0
590 2 2.3360745570107153 9.429163295355465 6.529083450659154 1 0 0
1228 2 5.066631194563814 10.725680761579374 6.953148074131117 1 1 0
1048 2 5.1102303792263015 13.008364430312904 6.821888397133323 0 0 0
776 2 7.167473699882009 10.293451326331297 4.173124922596322 0 0 1
172 1 6.378047141090461 9.870513379009031 4.60677157191371 0 0 0
775 2 6.313236670563539 10.342702931175525 5.435604071943014 0 0 0
398 1 5.801245484297636 11.288515563231966 6.9498584080232 1 1 0
1227 2 6.32733001490981 11.115006699390884 7.720278614442811 1 1 0
981 2 9.588302959900723 11.850258524438468 4.123501789257969 0 0 1
275 1 9.390987399429697 10.894061781397058 4.334108375113529 0 0 1
1221 2 9.29554011278605 10.511290703196142 6.083423562812636 0 0 1
1222 2 9.515934689174422 9.628952108325631 7.392130364072002 0 0 1
395 1 9.342368930562731 10.507061870993397 7.039831260779506 0 0 1
1090 2 10.448800935487851 11.791855440926673 7.058333509543517 1 0 0
872 2 8.459877927766971 11.607240629849171 8.481629522520272 1 0 0
291 1 16.62042992806158 11.702264884607134 3.025545371181022 0 0 0
616 2 15.248973528817542 5.914704405787403 5.868970252851182 0 0 0
698 2 11.989085934706631 8.7581894602088 7.745989318470089 0 0 0
948 2 14.81810956285089 10.842132028933863 3.4537719981962263 0 1 0
258 1 14.098056129498424 10.366724123338612 3.8471466912544767 0 1 0
1260 2 12.852619764605585 11.901709176310266 6.321381992386364 0 0 0
1259 2 14.026173065723869 11.239069626259854 5.635013639479764 0 0 0
414 1 13.731293785958437 11.523682667854047 6.502573998469675 0 0 0
697 2 13.227231400706678 9.748673746189759 7.334018497671417 0 0 0
931 2 16.501475069096898 8.958531316833547 7.324605029501046 0 0 0
250 1 16.982500265879136 9.59856808876824 7.873156440306338 0 0 0
1293 2 21.226313937397205 11.103679633090811 5.205698225974732 0 0 1
431 1 20.367604539431166 11.194261159514994 5.579393664041899 0 0 1
1013 2 16.936593693069074 12.171695521051188 3.7755311789397665 0 0 0
932 2 16.2861532064693 9.9896224559648 8.330171792701208 0 0 0
188 1 22.450819598187113 8.999134218129388 4.3278186905972875 0 0 0
1294 2 20.17651969309321 10.52741609478711 6.313238693449073 0 0 1
1198 2 24.144544265581708 9.42880634391695 7.582341484628815 0 1 0
1197 2 22.911784341556807 9.056228507777629 6.760512272514955 0 1 0
383 1 23.17938001771005 9.351584466235286 7.654837292448822 0 1 0
1185 2 0.9420397828715915 13.232030875732868 6.723840022698938 0 0 1
956 2 2.2341437996399827 13.85033263911709 4.804724232977433 1 0 0
262 1 2.3674195506853573 13.245195531366104 5.5300208869404 1 0 0
955 2 3.1714223988447525 13.508190137368542 6.055879511031821 1 0 0
308 1 4.567793179344219 13.852534292983695 6.800599974056254 0 0 0
1047 2 4.711132807124643 14.159608778444655 7.696113239128958 0 0 0
459 2 6.20850500697687 14.699916538135499 6.296713076543454 0 -1 1
14 1 6.875639573999211 15.054462555468207 5.76915006211384 0 -1 1
460 2 6.70427623443471 14.68369452667286 4.895512294877524 0 -1 1
942 2 9.809091195718178 14.040921603269071 4.445245891191753 0 0 1
584 2 8.788504254349736 14.846632313400177 6.156521324305122 1 0 0
76 1 9.635615337054475 15.046141978484501 5.789455886020627 1 0 0
583 2 9.601854131727059 15.974821215036428 5.605633274353076 1 0 0
1089 2 10.850219785976769 13.166704008252324 6.523155527997135 1 0 0
728 2 14.243725692706523 14.875655503853705 4.781516224837815 0 0 0
496 2 14.477548016613804 13.18702279464467 6.898712169971138 0 0 0
495 2 15.758670398187006 13.806138523069645 6.390490014362694 0 0 0
815 2 14.077826332904756 15.546524428765244 7.385606134277669 0 0 0
32 1 14.869848878580404 14.084718863215834 6.848619021552538 0 0 0
1114 2 19.7253279636876 12.397927019089153 6.939141978374512 0 -1 0
428 1 17.38090960465743 13.598701631421232 5.479325356147688 0 0 0
1287 2 17.986760126699085 13.976140101845306 4.740819606363917 0 0 0
1288 2 17.904719064447345 13.322363563538996 6.229000515312948 0 0 0
341 1 19.351632465806638 12.97981896703065 7.6605013699150755 0 -1 0
1113 2 19.96229018803254 13.709089513202516 7.8288927664913315 0 -1 0
1186 2 23.993652845942112 12.272358925385635 6.885263593104474 -1 0 1
377 1 0.23210959513295093 12.90444076559935 7.317544420633484 0 0 1
939 2 22.12517860313542 15.278451820692954 7.664345187849814 0 -1 0
940 2 20.7666380282075 15.878975833691523 7.480084613157361 0 -1 0
254 1 21.292041829630698 15.084891617541414 7.2060556631629575 0 -1 0
3 1 21.86852951968964 15.279585019116125 4.280930244460622 0 -1 0
437 2 21.92877843954748 15.288266226440244 5.274122024581875 0 -1 0
876 2 2.021710914099386 18.98440390625118 3.9760289248918173 0 0 1
128 1 2.0639882743642515 17.200969423934538 4.891695996574343 1 0 0
687 2 2.096470343349555 16.3616381693741 4.310710503318018 1 0 0
624 2 24.30236333550521 16.520437818594893 7.5567071196613025 0 0 0
466 2 4.28354737891793 19.194484648372182 4.717493139199857 0 0 1
465 2 5.250766341863354 18.858817624330637 5.837363452198561 0 0 1
17 1 4.84082984425128 19.656642428008976 5.3639331396856305 0 0 1
766 2 7.033886819561504 17.055719917907933 6.386089783256356 0 0 0
167 1 6.589792640261253 17.873569126397395 6.624797006208044 0 0 0
765 2 7.237874169894729 18.417224948566894 7.161281205961431 0 0 0
1098 2 9.097705492839983 21.492128300229325 4.577276004117546 0 0 1
1257 2 12.810524907141042 19.198642912251472 5.609410714156567 0 0 1
413 1 12.783315052701894 18.247484342381068 5.730865145729804 0 0 1
1051 2 9.548837591045757 18.549508678999526 4.4883594928762856 0 -1 0
310 1 10.033608137660824 17.74323773572783 4.737818760317778 0 -1 0
1052 2 10.700280215390794 18.015719176062554 5.411070207919685 0 -1 0
1258 2 13.248427521961231 17.890051657148586 6.457466248433761 0 0 1
192 1 13.81498869442753 16.452209846659564 7.57294312658032 0 0 0
963 2 15.208403855988351 17.41066662523247 5.3927503875547185 0 0 1
266 1 15.812164671590683 18.100706527594607 5.721607994170349 0 0 1
969 2 15.739756653686868 19.820646396494425 4.620970871220354 -1 -1 0
816 2 13.242894072656405 16.508186814338384 8.34556548584995 0 0 0
964 2 16.582543944856695 17.900943722021285 5.153275745309942 0 0 1
1219 2 16.264269850056294 17.483091936431382 7.457139870749587 0 0 0
394 1 16.923403421473704 17.367232062951906 8.163289638855929 0 0 0
721 2 18.74491640388911 17.29506773680412 8.103440576584209 0 1 0
145 1 19.724891510328643 17.261622235398328 8.267103555261786 0 1 0
688 2 1.1584419404065924 17.213629991604257 5.284971280314537 1 0 0
307 1 23.445515209841172 17.311667583040535 6.079614011956554 0 0 0
1045 2 23.65261926276481 18.225924806244453 6.330855408265566 0 0 0
1046 2 22.489601724176605 17.33138457502352 5.836690854321623 0 0 0
626 2 20.784308004759296 18.42666789570598 7.866282916157441 -1 -1 0
97 1 21.35355217490838 19.15133299182193 7.4919196055619315 -1 -1 0
625 2 22.232425699465185 19.082364043059197 7.93484636925084 -1 -1 0
928 2 1.6363835266908189 23.904101452681616 6.0012030810125365 1 0 0
1109 2 3.905166116192622 23.14739044706136 4.733440155143568 0 -1 0
821 2 24.026494100002388 22.780717953854413 8.235791856854696 -1 -1 0
248 1 2.2125270767187852 23.171700593451035 6.252177234115781 1 0 0
822 2 1.0206243920651672 22.181261395392557 7.935217301006426 0 -1 0
729 2 5.831701277454818 23.776712954975277 7.333265016357554 0 0 0
929 2 3.958865008169666 20.790336162812284 7.314019961025298 0 0 1
1163 2 6.158535921532479 20.717735409022055 5.032812343468447 0 -1 0
366 1 6.635025807292913 21.526430883846526 4.703483518917602 0 -1 0
927 2 2.835125481551565 23.6229264046123 6.828104184565612 1 0 0
1164 2 6.993097592628053 21.96793882180755 5.505854438692806 0 -1 0
411 1 7.502641175809918 22.947159235215562 7.082654327523215 0 -1 1
457 2 11.359289422017145 21.17665578768424 5.051645087517947 0 -1 0
13 1 12.32474994960717 21.20511750198065 5.29140536790216 0 -1 0
1253 2 8.028110476236904 22.454349488417407 7.695157341549619 0 -1 1
1254 2 8.068551215129458 23.7208590218413 6.751734575350364 0 -1 1
85 1 11.63327073691679 23.607213032998576 6.74914679565742 0 -1 1
601 2 11.738798481048606 22.783912140343627 6.266820839053156 0 -1 1
602 2 11.633403672188301 23.369860218372768 7.68814386421025 0 -1 1
458 2 12.85526946731902 21.360761817634156 4.496205615917071 0 -1 0
631 2 12.929621940054927 0.8531175749584916 5.917625433962663 0 0 0
400 1 16.09061106034631 21.83771851951247 6.659220792078956 0 0 1
1231 2 16.933994149621057 21.34491415966307 6.709673686535374 0 0 1
269 1 15.701655580995979 20.72125222451967 4.1627845902384655 -1 -1 0
970 2 15.686399073001127 21.347196518940887 4.902186453141959 -1 -1 0
1232 2 16.076735084509384 22.632577774576067 7.21808404657245 0 0 1
440 2 17.291706191661216 21.347879082399146 4.167796461828528 0 -1 0
4 1 18.18514241282728 21.610676639578315 3.822282594002842 0 -1 0
344 1 18.332438989504897 0.03722255508228464 4.823393382250054 0 0 0
1119 2 18.248147726818193 24.213442732591066 5.786792082839118 0 -1 0
360 1 19.40598180411795 23.194423168860528 7.114533103873543 0 0 0
1152 2 19.505846304071483 23.648356207947216 7.985992930296091 0 0 0
1120 2 17.41794288606086 0.09256200563772699 4.438153380978252 0 0 0
439 2 18.41519264843926 22.46252261061817 4.275725958038197 0 -1 0
952 2 21.01584549002957 21.85682112071676 6.24156696430588 0 0 1
1128 2 19.2875203144303 20.12287633710363 7.220201338119154 0 0 0
348 1 18.71102800454024 20.715342299570043 6.717779468772341 0 0 0
1127 2 18.856955193601255 20.607789901611604 5.748560586872934 0 0 0
781 2 23.39524384196111 0.38142572395554036 6.4668113584404665 -1 1 0
175 1 22.956219244043083 24.15424947764513 7.200972056042077 -1 0 0
782 2 22.517433415975784 23.487242144755157 6.672721909739595 -1 0 0
260 1 21.959914821498913 21.801893499342604 5.995436647258711 0 0 1
951 2 22.253866298274744 20.832389031280083 6.0040450483516405 0 0 1
1017 2 22.35605156730908 22.9943801803954 4.296604127806145 0 0 0
597 2 0.7578471817634843 2.33849163341123 8.848529372844967 1 0 0
598 2 0.20363887592180913 2.4514939602972814 10.279360591368373 1 0 0
83 1 0.01539279385108816 2.64870388231593 9.3904146907272 1 0 0
321 1 0.7718806991364335 1.8092614232513575 11.966381896142163 0 1 1
1073 2 1.1916877895748244 0.991506798002194 12.274975620341195 0 0 1
1074 2 1.2941592589413684 2.5248068037668085 12.431585118812214 0 1 1
578 2 6.929869791581604 0.7628652318413498 10.667764005493366 0 0 0
953 2 5.401515313923867 3.777330892278004 9.619362890469231 0 0 0
261 1 5.096799354415606 3.409714502619553 10.504450325432947 0 0 0
577 2 6.6338693419986585 2.2222409564108365 10.86602023171792 0 0 0
73 1 7.363404899311637 1.6151178581253838 10.771856815382332 0 0 0
635 2 3.924652846026758 0.1813351309385327 13.056079220653698 1 1 1
954 2 4.162332460113328 3.6957428313108145 10.57671728520419 0 0 0
802 2 8.890960259843375 2.0933343630120738 9.124526801354218 0 0 0
867 2 12.878363453339713 2.3708743671470054 11.607577382081447 0 1 0
1116 2 16.348653776439345 1.1371912608930372 7.4506795672611394 0 0 1
342 1 15.85486122794315 0.33903261027884374 7.503422726932986 0 0 1
418 1 11.38363286017769 3.853001355968344 8.689888338766544 0 0 0
406 1 13.703190077579544 2.74611327945274 10.155325559924194 0 1 0
112 1 14.483487477872533 24.270383593761974 10.151200785566655 0 -1 0
656 2 14.179647693054443 0.8477018967888273 10.108363609011647 0 0 0
655 2 13.739320188075265 23.75580316672937 10.065866525960104 0 -1 0
1244 2 13.009983059516038 3.070669053562237 9.644701946009098 0 1 0
1115 2 15.44608965161795 0.09505044507696682 8.352012417773539 0 0 1
450 2 15.975018154882138 0.22635552136269693 10.994941111382733 -1 1 0
9 1 16.74503805742365 0.5140151727335902 11.545438616345747 -1 1 0
1141 2 14.464088584580749 2.3954380344095574 13.077707716515652 0 0 0
995 2 18.791905069083363 2.9828944093187686 8.555489504363031 0 0 -1
282 1 19.20093033962785 3.322118778200705 9.311431607615818 0 0 -1
996 2 19.847645747612155 2.6585244561168015 9.5934452866305 0 0 -1
1192 2 21.753629808158596 1.2580153838067822 7.766686295551778 0 0 0
380 1 21.79132185502668 2.0616881363083763 8.261220281174129 0 0 0
946 2 23.466079031835054 2.042078642390257 12.846959911644415 0 1 0
945 2 22.055668732927366 2.708151231275194 13.135595619072184 0 1 0
257 1 22.671758860393744 1.9436605745683329 13.405847626958254 0 1 0
1069 2 21.816066687715534 0.33271718488861896 12.455250656234252 0 1 0
1191 2 22.646818832985247 2.0070604989644236 8.648463845746903 0 0 0
591 2 23.97181539448094 4.376250348741541 9.447852575538422 -1 0 0
592 2 0.44142335456161613 5.779018588667405 8.880564343028663 0 0 0
80 1 24.137975669941966 5.356141203871266 9.527647921637607 -1 0 0
1027 2 0.7525525317760803 5.912025091870097 10.962235811501868 0 0 0
425 1 4.437144755822262 5.651325114525542 7.370733508859782 0 1 1
422 1 6.631051848427964 6.832847150755212 10.216991661639645 0 0 0
1275 2 6.909255960771789 6.0359520117214975 9.698596191951932 0 0 0
1276 2 6.541292363131794 6.44993782323134 11.079639194517535 0 0 0
719 2 6.024470477978083 4.534677391986182 11.984041993264565 0 0 -1
144 1 6.63660901417053 5.159116959280616 12.40084315502159 0 0 -1
720 2 6.060064878248006 5.474872112558044 13.149775099089137 0 0 -1
349 1 7.02910648219341 4.661535404767008 8.631915075031158 0 0 1
1268 2 11.089975716411786 4.65863585893092 9.157002146011088 0 0 0
594 2 10.580540338526411 6.482137119450349 11.132667361630187 0 0 0
81 1 11.176423343326782 6.238220189427771 10.40334839436155 0 0 0
296 1 9.662826905597013 6.348273424950942 12.716793774561244 0 0 0
1023 2 8.832034037576824 5.818354590058566 12.637481859544925 0 0 0
1024 2 9.407507550771752 6.953314054906779 13.475229527881776 0 0 0
593 2 12.028175525956243 6.661128371473913 10.538733067126566 0 0 0
536 2 15.877176905885994 5.508939841119966 10.513120890417412 0 0 0
1243 2 14.276167213343992 3.5687916292654895 10.298696396617078 0 1 0
535 2 14.431687823452476 6.043833972409633 10.25655976115436 0 0 0
52 1 14.87539381778044 5.240356972023517 10.452206085093861 0 0 0
340 1 13.796713823466508 7.854113542055525 9.90715645385843 0 0 0
818 2 17.975920169751554 5.0785029693334325 9.83024310809624 0 0 0
817 2 17.951223890781293 6.380016764140255 10.646806916887742 0 0 0
193 1 17.414264043563723 5.66523757436412 10.371322921337233 0 0 0
746 2 19.531047768096414 8.363564184830421 11.52552357748535 0 0 0
157 1 19.863847925269535 7.524793603951819 11.161731867788202 0 0 0
745 2 20.32581461991234 7.52073724903604 10.298258794335077 0 0 0
869 2 19.714279318322365 3.254983723469808 13.241882623010701 0 0 0
219 1 20.33425505352234 3.516924198475676 12.54337950353935 0 0 0
1167 2 22.262811473186467 7.482032298069066 8.477855303743825 -1 0 0
368 1 21.901909685489535 7.084684956791394 9.290230101663436 -1 0 0
1168 2 22.531462375063516 6.415570248421747 9.6182028062249 -1 0 0
1173 2 3.845443136233065 7.572670213363935 10.922785075338721 0 0 0
371 1 3.182642124581001 8.245601344052508 11.09040739670577 0 0 0
736 2 3.5486435046902076 9.798776752177064 10.23347477301092 0 0 0
152 1 3.5118917268706804 10.513601111712799 9.528579892215117 0 0 0
735 2 3.099883348105868 9.990922989461115 8.844683159620233 0 0 0
1004 2 2.457359306457281 12.162249036678608 9.410371844783022 0 1 0
502 2 0.3819252431530791 11.726048534997108 10.82611597146206 0 0 1
1085 2 4.206492764250932 10.860113219866411 12.180593541150023 0 0 0
1086 2 5.401148721392594 10.014909057125173 11.590083490610807 1 0 0
830 2 7.530911487001827 9.870200738869865 10.499972337936867 0 0 1
829 2 7.514108054309985 8.319436048955923 10.831958687930005 0 0 1
199 1 7.724897906309134 9.222839440404409 11.206262461324503 0 0 1
871 2 7.5277466587128545 12.693000934246434 9.14948038669061 1 0 0
220 1 7.783435634172263 11.736711762424624 9.091600604434039 1 0 0
327 1 5.144014455143685 10.863080582037956 11.993078750744138 0 0 0
103 1 10.474186845417048 9.184636985010906 11.916863893846573 0 0 0
638 2 9.76653270699758 9.410598841474917 12.543434175161313 0 0 0
637 2 9.9550139531758 9.002140023843097 11.154788772886569 0 0 0
1112 2 13.55497326497688 8.226790620553533 9.11413606016479 0 0 0
1111 2 13.564334704200451 8.5570554286645 10.612332426727464 0 0 0
1118 2 16.08122525821299 9.23379657140621 11.210419799483141 0 1 0
133 1 12.86910339028751 8.83692486067821 7.386293235105674 0 0 0
670 2 14.529388940704832 11.98775604646143 11.28871116598299 0 0 0
119 1 14.97430266316526 11.647586585388261 10.496331183211915 0 0 0
107 1 19.73566539256289 9.590627446854377 7.8687092791415 0 0 0
646 2 18.88459190427039 10.051917664999797 7.879959002126816 0 0 0
343 1 16.696935255055983 8.848807525151573 11.886461792773753 0 1 0
1117 2 17.272316892537162 9.568508585296643 12.119992708956374 0 1 0
645 2 20.292581354960365 10.03041401356417 8.52801894997419 0 0 0
669 2 15.699407575092069 12.277605537587128 10.346657323174663 0 0 0
563 2 19.2416443288271 11.046259330988489 11.557265857758468 0 0 0
66 1 19.13344516401886 10.472355292229517 12.296322596688936 0 0 0
1034 2 22.391731337920664 10.913722023496325 8.626294759553446 0 0 0
1136 2 22.868663463752437 8.269624891593804 10.906154535934776 0 0 0
1033 2 22.541483752239042 11.569370063178464 9.997846994846402 0 0 0
301 1 21.89254152105041 11.387421431933143 9.322417190861497 0 0 0
501 2 24.306288238081997 10.718434141228084 11.95779945479239 -1 0 1
35 1 0.11551396258519887 11.670135220261505 11.77970992916137 0 0 1
1003 2 1.284458042344963 12.97467877765959 8.791403825378673 0 1 0
286 1 1.8168058510563199 12.78966666587649 9.606718906790197 0 1 0
819 2 1.8659745617776184 14.090881337031073 10.863479064076836 0 0 0
194 1 1.615184719196958 14.902450610543791 11.29323388558228 0 0 0
820 2 2.3141164152529328 15.030783612608648 11.950003384299826 1 0 0
444 2 5.53015946356858 13.065964876425243 10.232758125105471 0 0 0
443 2 5.961519223305837 14.561346125327843 10.141770382910492 0 0 0
6 1 5.904127169381897 13.716427749888902 9.692517890965107 0 0 0
336 1 5.370909874887356 16.64849063180288 8.96684849345953 0 0 0
1103 2 5.5901819464782685 17.16356310145099 8.143689850115585 0 0 0
1104 2 4.464480572014865 16.328839138601154 8.811665738577116 0 0 0
903 2 7.0395322798001 16.721674613620877 10.378233475687079 0 0 0
505 2 6.11907072055591 13.015290567985348 13.014255415289233 0 0 0
904 2 8.361332555322841 16.118418280967585 10.340055434678723 0 0 0
329 1 11.210697503463216 12.366316062726744 6.826707035674393 1 0 0
805 2 9.952467786673854 13.414049725114939 9.138865010552113 0 0 0
187 1 9.941925658802932 14.084769146868153 9.836920262890821 0 0 0
806 2 9.449294146324952 13.634781463882602 10.576474790390453 0 0 0
1105 2 10.034846071587172 15.879997422230252 9.056080495996717 0 0 1
34 1 10.923264335816063 16.243661418748882 12.397836030036512 0 0 0
747 2 15.587383466033812 14.538076243093771 8.68843593429573 0 0 1
158 1 16.06968881247161 14.844774084265165 9.492396949543803 0 0 1
435 2 15.997156273289017 15.955460833132204 11.334345135627958 0 0 1
2 1 15.972800696893987 16.40061518351454 12.1772664998683 0 0 1
851 2 18.706826451863567 12.804003754293515 9.267356839871628 -1 0 0
748 2 16.773536753642727 14.14918092527952 9.564267448670618 0 0 1
852 2 18.558833771298602 13.231424985110154 10.828762896874096 -1 0 0
210 1 18.15747522236468 12.679758716151962 10.135841064488814 -1 0 0
1247 2 19.907378608402926 15.300242169521294 11.350290983356073 -1 0 0
408 1 19.59201698897975 14.513118925772247 11.822369605144663 -1 0 0
888 2 23.05998492639426 13.618223884419564 9.118769694038853 0 0 1
228 1 23.12799768888251 14.322741610039213 9.757079842403641 0 0 1
510 2 22.684330685849154 14.1116493681096 11.449603209169947 0 0 0
509 2 22.957782456160885 12.842542934096391 12.170030736262348 0 0 0
39 1 22.404829455975488 13.646026842580644 12.241215942493826 0 0 0
1248 2 20.348253449310747 13.956522811695319 12.000834263958522 -1 0 0
844 2 2.399086995442075 15.874969623715728 10.10659944508801 0 0 0
96 1 0.053514438217718084 16.288653269333874 8.482157521875566 1 0 0
206 1 2.6520316016615486 16.380546651105455 9.265032534728842 0 0 0
623 2 0.996324336782355 16.39617202635446 8.758811364680982 1 0 0
843 2 2.7396094395493864 17.275881006719267 9.549334275529162 0 0 0
620 2 1.8415617385495868 19.542754936837618 11.504339900455015 0 0 0
124 1 2.9144028925368253 19.0911308797716 10.158355881466335 0 0 0
906 2 0.17925332227607754 15.808474168520691 11.578966049711642 0 -1 0
679 2 3.1825106348512975 19.62727444911742 9.380354514653275 0 0 0
680 2 3.7484384942628837 18.873655493903183 10.614418229408749 0 0 0
976 2 7.338361606624306 19.384584729623967 9.21897630020498 0 0 0
236 1 7.603000528865981 16.202212016604367 10.913921458352602 0 0 0
975 2 8.585188608541962 18.53807421010591 8.95485465021793 0 0 0
272 1 8.031235431647586 19.18723627441726 8.535656060991064 0 0 0
1106 2 10.84629864330295 17.09773444945926 9.479223357169435 0 0 0
337 1 10.02642661136281 16.894205451805487 8.99635279394281 0 0 0
1082 2 8.266218070364742 18.544033414930773 11.518372906830113 0 0 0
1224 2 12.2498188554733 16.96415950537653 11.034293730703919 0 0 0
1223 2 12.913427138234633 18.145250092129157 10.325148137327846 0 0 0
396 1 12.705969031625125 17.22014363895351 10.227981215003828 0 0 0
961 2 14.37580290526678 20.2953147019827 9.021613892944172 0 0 0
265 1 13.400546592981891 20.35019656026531 8.825035508950066 0 0 0
1187 2 13.103844307378814 20.266315033446812 11.427218322291788 0 0 0
1220 2 16.517448672966825 16.662515726928163 8.713938750465166 0 0 0
865 2 16.283837125376756 19.320745540432586 9.389447514799768 0 -1 0
217 1 15.905851832547473 20.158821142401692 9.654188296535713 0 -1 0
171 1 20.155228177054536 17.159358725039798 11.127756795916538 0 0 0
722 2 19.7668226471334 17.34478368267653 9.200888339536979 0 1 0
866 2 16.625942351288693 20.786455814438288 9.474616737204684 0 -1 0
773 2 19.54307635208271 17.771808419307536 11.569588707545595 0 0 0
887 2 23.776987979085302 14.9742619222332 9.368454507164014 0 0 1
841 2 0.1942270846555455 18.794168596982786 8.76446002526203 1 0 0
205 1 23.81170289293764 19.448370337145292 8.540340053190922 0 0 0
774 2 20.9963381287043 17.442581986348223 11.41040009324984 0 0 0
1007 2 22.41512368806982 19.505874462474427 11.06402462784867 -1 0 0
1008 2 23.14986059757036 18.440627866658836 11.894158450463108 0 0 0
288 1 22.31313937737807 18.91018500565218 11.8275716142539 0 0 0
195 1 0.31034854893439023 22.138559026214526 8.61450665968213 0 -1 0
706 2 0.33374060103050845 21.757458423414494 11.947863620736031 0 0 1
705 2 24.282219597894 22.54395316495378 10.660461173745638 -1 0 1
94 1 1.2142936419440917 19.780408058392226 12.231792024789241 0 0 0
249 1 3.9226604106385854 20.791136682955017 8.286665819335404 0 0 1
930 2 4.522355930307204 21.537937359354316 8.592268205372616 0 0 1
753 2 5.0352623429306185 23.9326686360764 9.489384921824737 0 0 0
102 1 3.558997003207768 24.038725256663252 12.315954922807999 1 0 1
754 2 4.77476939637201 23.778874970262848 11.01956106103366 0 -1 0
161 1 5.417043206553472 23.5883580723716 10.291646968428001 0 0 0
1196 2 6.905793308482229 22.388765388353207 10.792406294605723 0 -1 1
382 1 7.71168815577414 22.051390066975355 11.283006770129395 0 -1 1
1195 2 7.664652040547093 22.55570977749983 12.047498271669205 0 -1 1
1081 2 7.749672844797374 20.018357484177475 11.469115985512218 0 0 0
325 1 7.500349731208166 19.075808663082952 11.333771591582176 0 0 0
1061 2 9.290048557841832 20.677037965560864 9.03718825940668 0 0 0
315 1 9.639419991443983 21.571737891597735 9.222599256366998 0 0 0
1062 2 9.08309422262491 22.009477536156655 9.893766641405918 0 0 0
462 2 11.110538906694782 22.078617302910487 9.482471623136583 0 -1 0
15 1 11.987066964455028 22.480184470488442 9.567849585377608 0 -1 0
1057 2 11.127446552371802 23.741433600493114 11.38227643281909 0 0 0
313 1 10.717064650498155 0.029148355512943782 12.009016641173965 0 1 0
962 2 13.182323991194696 19.66650773028959 8.235482417935204 0 0 0
461 2 12.56589410053543 21.708485708501907 9.328406321736443 0 -1 0
1151 2 19.01781176823808 22.300819143648567 7.254668824747043 0 0 0
628 2 18.995637468318417 20.75780127680708 10.075469075621731 0 -1 0
98 1 18.385133048127628 21.458520578777286 10.059321418120085 0 -1 0
764 2 18.80569444696738 0.14337402379936282 10.25281685948737 -1 0 0
627 2 18.782733012741843 22.338952127315522 10.109177017809241 0 -1 0
166 1 19.516002511174047 23.863656725855776 9.927658683847575 -1 -1 0
763 2 20.278366829647233 24.036144689232117 10.508856567515878 -1 -1 0
842 2 24.034771671083885 20.336362831492618 8.801866846134748 0 0 0
137 1 24.079015543306173 22.457089034777795 11.597353723152604 -1 0 1
1070 2 22.113425233078175 23.230618952802065 11.947537335549207 0 0 0
319 1 21.36879926432526 23.891323709690703 12.073336949658422 0 0 0
1031 2 1.7155938463025826 4.448198471941226 13.878810130955774 0 0 0
1094 2 23.847139945132096 3.3122260300114945 16.100519156223196 0 1 -1
300 1 2.5258755154369736 3.9539480100173456 13.630936082388576 0 0 0
1032 2 2.8027410421539423 3.486011888072393 14.437938588719206 0 0 0
475 2 2.9303335418012386 1.7051203284225733 16.034075354829078 0 1 0
331 1 24.26846456586727 4.219379457434758 16.10521022719628 0 1 -1
164 1 5.37710051415639 0.7564948456237521 14.425933121593022 0 0 0
759 2 5.07232504790291 1.544029649714936 14.811059848945346 0 0 0
22 1 3.2759663688058382 2.640112681640866 15.901794457815667 0 1 0
760 2 6.323269068511656 0.7374057719551574 14.32489257667914 0 0 0
1165 2 7.671941112539453 2.407427068907122 14.422954390613665 0 1 0
1166 2 7.866600542437298 1.7876730921058557 13.003493095057928 0 1 0
367 1 8.134607009060982 1.7248473003348948 13.925390147235165 0 1 0
700 2 8.932784169670594 0.5568283044674077 14.904871447832397 0 1 0
868 2 11.754434167713043 1.5920181255823642 12.29086315915184 0 1 0
218 1 12.361790992378571 2.288671461071245 12.51582426418245 0 1 0
518 2 12.744646149314582 1.531219261931298 14.416304257747377 0 0 0
43 1 13.244225193721842 1.1284667362446867 15.210806752093223 0 0 0
517 2 13.94504650999037 1.7806360858665655 15.49389788095304 0 0 0
28 1 16.39378090457073 1.6139172659222039 15.877966832788495 -1 0 0
355 1 15.397120725033444 2.5112748037172965 13.348429368417174 0 0 0
1142 2 15.581867327188686 3.405448146331984 13.534571543125432 0 0 0
488 2 16.108135523408595 1.8409677514022043 15.004373231335952 -1 0 0
449 2 16.383664980445964 1.2376952376115924 12.17291906789653 -1 1 0
487 2 17.16082767810355 1.1228660488183098 15.799573674116147 -1 0 0
1172 2 19.687162874735165 1.9992545366360612 17.5962984703113 0 0 -1
519 2 23.537446814371105 0.20618248583912527 17.202770148421173 0 1 0
1277 2 21.521066009731715 2.434617423571538 16.651073095945478 0 0 0
1278 2 21.840030904461155 1.5432999094139452 15.359997669393406 0 0 0
423 1 22.167224070749235 2.2437509656935815 15.969658425674842 0 0 0
370 1 20.22948167858448 2.6840460059261773 18.030794536742988 0 0 -1
788 2 23.902800164393117 5.481860508553392 14.610044019015342 -1 0 0
787 2 0.3025020144225742 6.920842035610627 14.407067404322897 0 0 0
178 1 24.085369239943155 6.207656828828523 13.996809316078549 -1 0 0
1028 2 0.8224609837529869 6.100986048013701 12.472518154100268 0 0 0
298 1 1.2467390839173491 6.418416715372703 11.673998168977935 0 0 0
46 1 1.682275647533316 7.9440097738956 15.422974599384965 0 0 0
798 2 4.059275843203683 4.991051327558665 14.213281120367284 0 0 -1
183 1 4.919505026542447 5.354480163681328 14.526604438611718 0 0 -1
797 2 4.684868613621725 6.151172587401906 14.993257048159592 0 0 -1
994 2 6.347741148056276 4.00329135257175 15.681053970099507 0 1 0
281 1 7.154192929309415 3.548130795319748 15.767873514171459 0 1 0
936 2 8.682980445185953 5.066378134145514 15.865134283184814 1 0 0
1289 2 11.191946687525654 5.133992760613814 13.47890896915065 0 0 1
252 1 9.35173018929937 5.682188887143584 16.20791827694157 1 0 0
935 2 10.14307308941567 5.343569534957984 15.800598655687502 1 0 0
429 1 11.64481361048123 4.4643064885273525 14.0064648638037 0 0 1
1201 2 8.765016272058004 7.9546809467258885 15.943874048501211 0 0 0
1290 2 11.886087737543987 3.7043930460278944 13.435458128595563 0 0 1
1250 2 14.995884744064876 5.5551245870055155 12.650404928306362 0 0 0
446 2 13.098157503050059 4.856651101932301 15.320612119256936 0 1 0
409 1 15.354186580176279 5.4815333657026 13.508647384814763 0 0 0
1249 2 15.06044359702511 6.2304033859569845 14.029782918289795 0 0 0
1126 2 17.262894884650972 5.3002595002360176 13.60394362539251 -1 0 0
347 1 18.191500116657018 5.340608367599509 13.776285317321413 -1 0 0
1125 2 18.587990926387167 5.135327738730074 12.924266218639765 -1 0 0
870 2 20.687862004182215 4.436852515016634 12.697784727959148 0 0 0
139 1 21.463969464527054 6.434661126436156 13.10236889748823 0 0 0
710 2 21.003029222202738 6.8460836849518385 12.37316236695702 0 0 0
709 2 22.415162164715664 6.825572702991404 13.148513686449244 0 0 0
762 2 21.049207458777435 6.814979259704296 14.909584333222858 -1 0 0
1174 2 2.4261755443601496 7.6784746132826305 11.346615303339876 0 0 0
1026 2 2.9048219792684367 11.240177878250089 14.86241088654532 0 0 0
1135 2 24.2314880678131 8.123987837032686 11.592325541059175 0 0 0
226 1 2.6634962189874973 12.181615740979476 13.315766059206132 1 0 0
884 2 1.855121262338397 12.136046226304517 12.801542185742218 1 0 -1
297 1 2.9116570582641224 10.471639755430799 15.52409717331896 0 0 0
524 2 1.942589651308435 8.901886849735783 15.250187493671367 0 0 0
1025 2 2.50746135620788 10.718534926588069 16.373535125650537 0 0 0
525 2 4.740659720397898 10.24646028595251 15.624758784734416 0 0 0
1040 2 6.781256559438302 10.90200582125566 14.454725457933456 0 0 -1
47 1 5.6492038991830995 9.973025583692172 15.7393179269725 0 0 0
1202 2 7.784549189759283 9.012890976297362 15.471597806996995 0 0 0
1039 2 7.212526916704404 10.341821312353478 13.186432624840759 0 0 -1
304 1 7.412956876888776 11.068468400473439 13.760408653778246 0 0 -1
385 1 8.74328883833957 8.81309531783393 15.57051846041426 0 0 0
477 2 10.570751178433166 9.850116645382808 15.149704639351325 0 0 0
910 2 12.045363884311682 9.440527540098822 11.9277784876627 0 0 0
23 1 11.235551622105417 10.394940710300931 15.542272081960084 0 0 0
463 2 10.82656407653078 12.128858984491176 14.696931557523724 0 0 0
384 1 15.187899301640817 8.217343119726488 14.24387050146967 -1 0 0
909 2 13.249815239452618 10.38108389925792 12.256565677091924 0 0 0
239 1 13.025911605195581 9.467420127626388 12.006181785936459 0 0 0
1199 2 14.326485761381827 8.61044904961973 14.314735835947333 -1 0 0
564 2 19.92180114246039 10.585208238435033 12.895003691004053 0 0 0
1200 2 15.634536369567522 8.502680344680853 13.395097348807326 -1 0 0
515 2 16.720398709865457 9.537718835691567 15.155406075741462 0 0 0
544 2 18.978003303039433 9.376445125846109 16.105339373086053 0 0 0
1271 2 20.8928014970795 10.113338436904382 14.826418130678531 -1 1 0
420 1 21.23503360405677 10.196510406652825 13.883818778551317 -1 1 0
1272 2 21.319248322924917 9.331319080553074 13.503340061965705 -1 1 0
352 1 23.454625154382494 8.706860078740595 11.563676007640609 0 0 0
56 1 19.919651272221547 9.545280292989341 16.236897406219946 0 0 0
883 2 2.9323964457471647 13.084192452192623 13.382998166309946 0 0 -1
678 2 24.088480853344244 14.913981177387582 15.570705365202956 -1 0 0
668 2 3.3345630788943224 15.560691461446885 14.184803537503225 0 0 0
118 1 3.5101272593767963 14.983203531358283 13.404518270414055 0 0 0
667 2 4.515836024318457 15.007376102246797 13.303861540378202 0 0 0
37 1 6.1503546511015745 13.912278559723067 12.78410993532948 0 0 0
506 2 7.05390201153583 14.182309684263398 12.648420772947496 0 0 0
1101 2 7.28514851682579 13.015776172418173 17.273362320762118 0 0 0
1157 2 5.126072304570827 15.777733926519247 18.526228888385678 1 0 0
1158 2 5.7291984106030664 15.334257090560751 17.08424282105473 1 0 0
363 1 5.3371718150995635 16.037017343304072 17.59157329428293 1 0 0
1140 2 6.592352180478862 14.219574946120963 14.893103777038206 0 0 1
493 2 8.450263065849278 12.377413163098117 12.643253624262746 -1 0 0
31 1 8.889732443205215 13.229011400539813 12.500192341060808 -1 0 0
494 2 9.692190794700105 13.043557818663814 12.971570192660078 -1 0 0
354 1 7.048016512886165 14.369479686187773 15.727507673515095 0 0 1
1139 2 7.979793965994378 14.454027576188349 15.487290310133352 0 0 1
500 2 10.77707080138393 15.341988631541252 12.130960395934947 0 0 0
499 2 11.394857888826918 16.412189271852572 13.19362115025453 0 0 0
229 1 13.862560722641325 12.295018856931062 13.316966139852918 0 -1 0
890 2 14.452901395632148 12.381552544711306 14.078926576656627 0 -1 0
889 2 12.912572659674854 12.555495326409863 13.385143505839926 0 -1 0
16 1 11.001036738976945 12.921787654112714 14.2024300272774 0 0 0
464 2 11.271305998017024 13.544452244497073 14.83145907202646 0 0 0
474 2 15.814661965503769 12.907165306830995 15.86461700867587 -1 0 0
1261 2 14.26325705813304 14.84484017836224 16.644248761053976 0 0 0
1269 2 14.53802835359619 16.83080571860933 13.318164661877697 0 0 0
473 2 17.196805197498435 12.137928914496225 15.474037912365109 -1 0 0
21 1 16.519297232601343 12.747927951456314 15.217140039631857 -1 0 0
436 2 16.358636102322237 15.777459419632313 12.763202453256202 0 0 1
1042 2 17.37608617803423 14.061423242597657 14.266115556014418 0 0 0
305 1 17.73029231667169 14.889799064526507 13.910753741016846 0 0 0
1041 2 18.206616645025665 14.742304447018656 13.096516191770771 0 0 0
570 2 16.979991361584226 16.598403736786963 14.815826480531047 -1 0 0
905 2 23.718553802840045 16.56579018435926 10.605353653914904 -1 -1 0
1092 2 19.88460666275417 16.819105851285578 14.844009298950471 0 0 0
330 1 20.695320033728013 17.0035118444662 14.36320661642804 0 0 0
893 2 22.74416580289862 14.595856285799886 13.627715436730153 0 0 0
894 2 21.99032426084525 15.751161503194744 14.225897524794917 0 0 0
231 1 22.525277815196112 14.99673413928569 14.479925661420156 0 0 0
912 2 23.925555555560738 17.41336593516294 13.602292012112533 -1 0 0
240 1 0.26728989416545124 17.931632599225544 14.099616277263461 0 0 -1
966 2 1.9035140427252386 19.544396797403213 16.200435816022683 0 -1 0
965 2 3.3758674535675484 19.343658215583897 15.808971642339397 0 0 0
619 2 1.1229143867395905 18.917788427023574 12.6934187357727 0 0 0
694 2 2.4311292416772283 17.088278441983796 15.934356291574424 1 0 0
131 1 2.905396078410952 16.274982555824643 15.775462455633692 1 0 0
693 2 3.5297181602768903 16.19042465420221 16.486944813289536 0 0 0
874 2 5.678408002020907 18.442627322922814 11.906226775003974 0 0 0
221 1 4.763429342887228 18.064083490145848 11.933912107101278 0 0 0
207 1 4.668705762093322 19.379932551197726 14.336653146998177 0 0 0
845 2 4.419008473259335 18.856959939146904 13.57254556157354 0 0 0
873 2 4.830573069571748 17.126549812455472 12.089012597416406 0 0 0
992 2 9.241214422742539 18.470718738991273 15.807799972433905 0 0 0
991 2 10.300543878483127 17.459265214062803 16.173274836818262 0 0 0
280 1 10.178486627754763 18.38982124100298 15.907506586937895 0 0 0
447 2 10.125712193673197 19.232230733562723 13.718474255054403 0 0 0
8 1 10.457990659096023 19.719264764793742 12.935347527546515 1 0 0
1188 2 12.135390220343641 19.724461115925706 12.571087093711744 0 0 0
1270 2 13.480536951802288 17.904363491695673 13.149076932969736 0 0 0
378 1 13.059938228238869 19.926015210453432 12.3167638815398 0 0 0
424 1 13.361047027683497 16.36925657250539 16.199312957884196 0 0 -1
419 1 13.678320717680146 17.11133283930423 13.611648977969924 0 0 0
1280 2 13.458068230402064 16.659218143353463 15.260014772770107 0 0 -1
703 2 14.542894075453862 20.480587737799546 13.455867409278241 0 -1 0
633 2 16.9349018651004 17.860154134286045 11.820293588095764 0 0 0
101 1 17.440777083921105 18.614898535605974 11.68498346008993 0 0 0
634 2 16.88318751126703 19.338748519154684 11.453120087633952 0 0 0
772 2 17.989574795869277 19.225935939809197 13.401384103412978 -1 -1 0
170 1 18.298287534021913 19.226323007085675 14.35034098655068 -1 -1 0
771 2 17.910954548559445 20.01501930746687 14.726337448801301 -1 -1 0
569 2 17.42639705824646 17.96338203204058 15.184927923392797 0 0 0
237 1 23.887263236667316 16.573872532651777 11.545978722529949 -1 -1 0
1091 2 20.82746339994559 17.958743539872398 14.450563712781216 0 0 0
911 2 24.102412708231505 18.28894339936178 14.860274473806552 -1 0 0
751 2 22.0512122003741 19.727504712532568 13.40979572973766 -1 -1 0
752 2 20.62190378067032 20.079227272374727 13.583001039138194 -1 -1 0
160 1 21.485773540551595 20.13236849936311 14.059644617290035 -1 -1 0
548 2 2.806107047243588 23.611092134649397 16.507934363704337 1 -1 0
58 1 3.10211253792896 24.191336511931638 15.827772279787848 1 -1 0
1001 2 2.2117020392769042 20.92232788442471 13.106067755383147 0 0 0
285 1 2.8404148786598817 21.531053523511577 13.569445687605437 0 0 0
1002 2 2.3294867759388893 21.859453276806132 14.342384195396034 0 0 0
636 2 3.353069108510686 23.125526682822954 12.669126288961387 1 0 1
609 2 6.619694014905591 19.732183141535238 14.51594309570049 0 0 0
846 2 4.162440349201593 20.199288815714066 14.130465905054486 0 0 0
134 1 9.400781226465714 24.244410696424318 15.51429174492468 0 0 0
448 2 10.33991194455961 20.609211489053646 13.280422583738511 1 0 0
508 2 10.2066357075547 22.77717504113166 14.605176345037336 0 0 0
38 1 10.674544774001886 22.302058382457144 13.907354934210455 0 0 0
1058 2 10.714827834868323 23.803537468688965 12.825132279592394 0 0 0
507 2 11.577722234738081 22.210115130096014 14.282435247944443 0 0 0
704 2 15.749643449794462 21.360184076929013 13.575643203351904 0 -1 0
136 1 15.09242110308296 20.90093732934521 14.137306550786764 0 -1 0
292 1 13.138287760371393 22.479965928041416 15.502265308812936 0 0 0
1016 2 13.679230873767553 22.05768289406174 14.83781463889329 0 0 0
1015 2 13.162162895521908 23.428729343649564 15.416423867979466 0 0 0
824 2 17.29820211396018 21.7751136376798 11.718902498052893 0 -1 0
196 1 16.91680871440194 22.07305947648472 12.561833715428309 0 -1 0
823 2 16.69493067632041 23.02372626324311 12.451394475033824 0 -1 0
756 2 19.162045484450594 0.3645414292399482 15.997712905247482 -1 0 0
365 1 20.032368092032765 23.571114949512488 14.803591513967339 0 0 0
362 1 0.3817545088448104 20.509751328057266 15.959418413137527 1 0 0
1156 2 0.024176667300648894 21.284680350073486 15.475752524903708 1 0 0
1161 2 20.750043874104723 23.125580613190078 15.266306133591955 0 0 0
1162 2 20.390545958053696 23.63231010911925 13.933607593164448 0 0 0
44 1 0.1294251331353859 24.172690524658446 17.384344187017653 1 0 0
1093 2 0.9015933329421792 4.14437130568901 16.336343533108824 1 1 0
863 2 1.7182611233652123 3.3222462566483477 18.800975442752307 0 0 0
974 2 1.3370756335928204 1.506036324338737 20.170266161304074 1 0 -1
216 1 2.298425802967641 3.9286305614523247 18.22456443946002 0 0 0
864 2 2.865027450734383 4.295587112155278 18.91523792560939 0 0 0
476 2 3.154002145551757 3.119935732818583 16.711854728141592 0 1 0
647 2 7.075908138211131 3.2839613892279425 19.094669357512956 0 0 -1
108 1 7.8266365799317175 3.8608270557084587 18.871660270520575 0 0 -1
648 2 8.56141205726749 3.2514379311767274 19.02545157502789 0 0 -1
692 2 10.38401192305736 0.8044866874054035 16.7571715217974 0 0 0
812 2 10.405861942914054 2.2001331304354865 18.65798455048015 0 0 0
811 2 10.815435404776 3.5776359343773567 19.171202446820377 0 0 0
190 1 10.245499280903237 2.809842666988118 19.399081583043348 0 0 0
130 1 11.132319623373222 1.0612045530271281 17.338315760233932 0 0 0
691 2 11.680459081613188 1.393121790661989 16.656231916395413 0 0 0
486 2 9.685051203476075 1.8826011581585247 20.801833471587635 0 0 -1
27 1 9.309827456298967 1.2401730281264272 21.432588633413665 0 0 -1
803 2 16.462141713853093 3.4755258403974802 16.47180624722713 0 0 0
1181 2 14.407968247505615 0.6760709028435274 19.300438653796867 0 0 0
162 1 18.934310759955533 0.8321191536120739 16.816413945735004 -1 0 0
582 2 18.528557834077795 0.3806439736523187 19.718009583216265 -1 0 0
755 2 19.045337007276263 0.20090046419566504 17.543220932148852 -1 0 0
271 1 1.0361666917557075 1.77929438997701 19.282968324934668 1 0 -1
520 2 0.5759642516689842 0.6215156240681059 17.889583031413856 1 1 0
1171 2 21.04804218185545 2.205753431973068 18.31087643714276 0 0 -1
973 2 0.12880884721395724 2.0114123109163415 19.354857894932092 1 0 -1
238 1 22.600753302768076 1.610772498705452 19.291023609546617 -1 1 -1
907 2 22.071167000209673 2.0598282863414896 19.98968298324324 -1 1 -1
908 2 22.427647322237018 0.6498586023143005 19.192658288934375 -1 1 -1
523 2 2.540975998853829 7.568256245795654 15.638080646747479 0 0 0
681 2 0.623539520080637 8.31655862255655 16.975059576346307 1 0 -1
125 1 24.296175895784682 8.560198757450365 17.63530157058214 0 0 -1
682 2 23.792170443683432 7.723165875075528 17.67692941618256 0 0 -1
993 2 7.0831432641260275 3.373079445786499 16.714124130028765 0 1 0
915 2 4.709314424134959 6.878086180443086 17.108552045145267 0 0 0
242 1 4.4915482209779345 7.305493818196749 16.263496182864067 0 0 0
916 2 4.9361166801387615 8.17798378915436 16.120945202704764 0 0 0
64 1 5.135311869540944 5.8531380146613445 18.826211986717432 0 0 -1
559 2 6.04813531341549 6.043809274437778 19.000873951510826 0 0 -1
809 2 7.905735145868427 7.597514228462553 19.25649790845988 0 0 0
560 2 4.687754550000437 6.283980720478782 19.557866259056055 0 0 -1
189 1 8.274678099326374 8.253180317560231 18.67132031198828 0 0 0
1190 2 12.664363932477057 4.5547471313968355 18.226125145262078 0 1 0
379 1 12.002648987354055 4.771279431655835 18.862754061521898 0 1 0
1189 2 11.614264464093479 5.6803794300816595 18.64703566037493 0 1 0
7 1 13.54513260334941 5.055413374024812 16.13830580286484 0 1 0
445 2 14.465880671541896 4.7797965924312455 15.984829722861496 0 1 0
804 2 17.319094783539505 4.816876292453194 16.718558490046796 0 0 0
186 1 16.40511576382327 4.371280755509085 16.823084660628407 0 0 0
1217 2 15.844761557092816 4.458177448646903 18.635375918462387 0 0 0
393 1 15.099784915858915 4.295474344029326 19.23016025286437 0 0 0
1044 2 13.047071719482837 6.770890094881545 18.002713497443647 0 1 0
902 2 15.269418753447814 7.692981702793285 18.18169214243768 0 1 0
1218 2 14.824173573054637 5.1622774636591995 19.624028699608605 0 0 0
1292 2 17.870797918045746 6.227078147803385 15.313517178778156 -1 0 0
1291 2 18.95942301867298 6.5455839274668834 16.203919650066158 -1 0 0
163 1 18.585674410023262 3.8772719984909383 20.195209918835584 -1 0 -1
430 1 18.035004649483525 6.746820520776669 16.089185674574427 -1 0 0
901 2 16.731447408625193 7.168344617072734 17.762180474420333 0 1 0
757 2 18.99493122273921 3.702815287724578 19.29793399056363 -1 0 -1
235 1 16.255045396226084 7.896321184031644 18.161041809204736 0 1 0
556 2 16.848939579631754 7.532973727069224 19.669811937315522 0 1 0
758 2 18.26778776773511 4.836227560543289 20.20734312000467 -1 0 -1
165 1 20.92885504373921 6.990625511162043 15.845785220437826 -1 0 0
1215 2 23.353699601978825 5.521395452779387 17.19767471014492 -1 1 0
1216 2 22.47928855676721 5.936897919789881 18.450289158642914 -1 1 0
392 1 22.79134899706076 6.237818055960594 17.602008637233244 -1 1 0
761 2 21.727015465941477 6.645927098363443 16.31566752659899 -1 0 0
858 2 1.0144351323249765 8.777048728069106 18.922590229188184 1 0 1
898 2 0.24871100954158776 11.366615344089402 17.3479017780056 0 0 0
652 2 3.079835778387814 11.701518930817118 19.402247228456506 0 0 0
651 2 2.5501427340771285 10.231743772042508 19.718303026989147 0 0 0
110 1 3.3465621121098152 10.815090448333123 19.63296812419002 0 0 0
233 1 1.001751013744031 11.810978661803585 17.732695861425494 0 0 0
526 2 5.823973882657852 10.042305398327233 16.765956580765458 0 0 0
657 2 5.087334645417196 10.015631072089283 18.92100193149128 0 0 0
113 1 5.923006143303882 10.156994808701759 18.48552110882798 0 0 0
658 2 6.2136389561193885 11.062964258165977 18.65919579624292 0 0 0
810 2 7.741405254819737 9.03774525366362 18.87690118910047 0 0 0
182 1 10.796900557228197 7.208845063872558 18.063373457663843 0 0 0
795 2 10.09362180720118 7.837790898294334 18.4523435885957 0 0 0
796 2 10.190844414656542 6.84376713543023 17.361562534358153 0 0 0
478 2 10.941404136099111 10.64774310396247 16.45682011935654 0 0 0
120 1 10.099547137024832 11.607265715370374 18.210580247007037 0 0 0
671 2 9.194582243272878 11.953446580273702 18.108140225480664 0 0 0
1256 2 9.891986123249044 10.595705345128838 19.896683350994845 0 0 0
306 1 13.464908100152766 7.518117521801338 18.359721093865762 0 1 0
1148 2 13.044157340750676 8.077316151111804 19.886807998823013 0 0 0
1043 2 12.913190692362496 8.157720388790327 17.83303147759272 0 1 0
456 2 14.571416269572975 10.79566402151488 19.618153785359343 0 0 -1
358 1 12.765655388539255 8.447009167708398 20.76518458300389 0 0 0
1147 2 11.895755786262797 8.129468855801608 20.98650936165092 0 0 0
455 2 13.34828127076067 10.359085636836616 20.42188075849677 0 0 -1
12 1 13.788045644151701 11.155796142956863 20.10642693426417 0 0 -1
42 1 17.03603519275035 9.85955075631069 16.028944708971483 0 0 0
516 2 16.978129044667067 9.106712960514548 16.65901149085445 0 0 0
1206 2 17.949148585786116 11.412608440472738 19.67496813229641 -1 0 0
896 2 16.590626320743045 10.766991601800424 17.730315076190443 0 0 -1
232 1 16.31371779588797 11.34990772030906 18.431759950229957 0 0 -1
387 1 18.569473720055825 11.157751431711963 20.39930783806808 -1 0 0
1205 2 19.40874472416026 11.325916418300904 19.95164857463096 -1 0 0
562 2 23.659488267543704 9.982811232982858 15.910556730072575 0 0 0
561 2 22.828221302523954 10.853848849261365 14.920537231290322 0 0 0
543 2 20.255830537897303 8.643400670496435 16.181126522753086 0 0 0
65 1 23.71195731285888 10.732222788356278 15.331034638731232 0 0 0
984 2 20.733104719111484 10.559406885543089 18.033102280504806 0 0 0
276 1 20.972068560100457 11.269971968553135 18.699478208895652 0 0 0
897 2 0.9544706785860533 12.663858624684986 17.206069240940533 0 0 0
123 1 0.3771303586495575 14.742224136963424 16.30105870111842 1 0 0
677 2 1.2182772659323917 15.03703318367214 15.94836125387752 1 0 0
154 1 0.6675828159374428 13.633903533745217 19.92510972190413 0 0 0
227 1 4.173548683682258 15.134838209690363 20.10100260394076 0 0 0
885 2 3.3280799628731867 15.3741096996502 19.618158991385275 0 0 0
1238 2 6.66952363671673 14.92985378749193 20.755998003962112 0 0 0
1102 2 7.1841767599787145 13.290064284127054 18.833169384211303 0 0 0
335 1 7.366189782098376 12.585099405119491 18.15856459088246 0 0 0
1237 2 8.21945158873565 15.053332694201439 20.718136319551974 0 0 0
403 1 7.4934215745172565 14.457960605825999 20.51524133536308 0 0 0
715 2 10.474294347879127 14.781126955642732 16.99633347712215 0 0 0
672 2 10.591042355488087 12.44824819823542 18.275634435495473 0 0 0
159 1 10.667806938977304 14.280447654762684 18.928046013488707 0 0 0
750 2 11.613084828544247 14.39139898011153 19.15345378665287 0 0 0
749 2 10.189781714299137 14.620078873350609 19.746816998597364 0 0 0
117 1 9.506658256703316 15.970622759596624 21.244592680223242 1 0 -1
1262 2 13.874486995233866 13.763320041976694 17.633949064840458 0 0 0
415 1 14.383063233541142 13.909112120173734 16.839679196424886 0 0 0
53 1 13.360239785712475 13.963718208786828 19.49767154910637 0 0 -1
537 2 13.459932150172188 13.080409957884296 19.785456969792584 0 0 0
538 2 13.997497595921654 14.480078106119871 19.998437517212494 0 0 -1
895 2 16.160522201925506 12.158753646524765 17.951724602990012 0 0 -1
1049 2 15.814470519481182 16.861680612488236 19.643222069603667 -1 0 -1
925 2 19.462253221929554 14.856005867582686 16.807346284775 0 0 0
247 1 18.67250924675189 15.262693948198258 17.151742630376138 0 0 0
926 2 18.191986690240476 15.664237382154026 16.41557934269614 0 0 0
603 2 18.891214661713168 15.443864462071637 19.08606597911272 -1 0 0
512 2 21.413795558369088 13.248778233228713 16.24802892859472 -1 0 0
739 2 0.6496039501098296 13.501751177679019 19.010563703517622 0 0 0
40 1 20.9769152730408 13.420114414907376 17.054206110145444 -1 0 0
957 2 23.487931003373518 15.157152179196354 17.683823097063062 0 0 0
263 1 22.832698251402313 15.017948214953536 18.410054390812036 0 0 0
511 2 21.563344018767992 14.034624804568125 17.509146220441377 -1 0 0
983 2 20.803923216075386 12.071221120764754 18.13107061685559 0 0 0
267 1 2.743125036410233 19.201971160126103 16.50912250621247 0 0 0
1145 2 1.1515451529200025 17.217262441490693 19.368118962639127 0 0 0
357 1 2.0654128575957578 17.026604362170144 19.099797242714317 0 0 0
1146 2 2.041096340919615 17.380807321289634 18.22754458956968 0 0 0
1274 2 4.847907460757418 20.207996856107137 19.430271116335778 0 0 0
442 2 7.044062373352842 18.833044261919124 18.588024109126852 1 0 0
5 1 6.783050714847182 18.54308389363251 17.70744221534292 0 0 0
441 2 6.229253733618495 17.800386548645143 17.618077964447778 1 0 0
610 2 6.967486529539986 19.36001238661753 16.050165910300837 0 0 0
89 1 7.326098153321612 19.74880863036618 15.228369535232982 0 0 0
716 2 11.522997505743495 15.801778627379457 16.448868753391025 0 0 0
142 1 10.800931794485088 15.275218059026038 16.176436398416463 0 0 0
469 2 10.775866057034932 19.03660382350777 17.45748894190177 0 0 0
19 1 11.000795497668939 19.24857609419875 18.41691405073132 0 0 0
470 2 11.792611599329524 19.842276225277093 18.437645027290493 0 0 0
701 2 15.107289594201992 20.102383788769277 15.923631260140334 0 0 0
1279 2 13.7052497026917 17.126035734559277 16.708189054418682 0 0 -1
135 1 14.823371658439914 19.76128257702184 16.802679566107724 0 0 0
1154 2 15.54864751066963 18.596594014640203 17.938110539015074 -1 0 0
702 2 14.279195957139493 20.410946206789575 17.26968586798209 0 0 0
69 1 16.827733090238215 17.239911581938493 15.552146326229723 -1 0 0
361 1 16.183655633967522 17.911302310329347 18.2994468990203 -1 0 0
1153 2 16.364633260963576 17.46933899931645 17.459162691601424 -1 0 0
1022 2 18.950143620261844 18.98982703749355 19.524150972334997 0 0 -1
295 1 18.151947941352645 19.24056784287477 19.993930207675163 0 0 -1
1021 2 17.494738970387214 18.768922150264185 19.47638489801963 0 0 -1
140 1 20.03645556060151 19.81462629313162 18.023186516851887 -1 0 -1
712 2 19.503085456867115 19.44392922031708 17.328854434309925 -1 0 -1
711 2 19.81931128063442 20.763523060353677 17.957720329641642 -1 0 -1
958 2 22.454354468289402 15.869444845942793 18.618091950533483 0 0 0
622 2 21.516389879368678 18.139382189629654 19.785697895104775 0 -1 0
522 2 21.987451414187277 19.538227860323822 17.80291053224969 -1 -1 -1
521 2 23.511931621872094 19.508053278541727 18.3509511743176 -1 -1 -1
45 1 22.85739667457011 19.186364058683996 17.688935788292618 -1 -1 -1
177 1 0.6194262809403943 19.63423186955052 19.324498315192873 0 0 0
785 2 0.7882381013589612 20.525060774684416 19.065822330434447 0 0 0
1242 2 23.252699749011516 17.194572875103947 20.90610157652184 -1 0 -1
1263 2 0.7881707016193702 23.211257627771744 19.44247872540979 0 -1 0
1286 2 2.479920525846413 21.993574800789418 18.697645596763603 0 -1 -1
547 2 4.0956303978644675 24.024614735917986 15.7484653174813 1 -1 0
1285 2 2.8034237199600947 20.66875285402861 17.84808828479453 0 -1 -1
427 1 3.1176239694673407 21.620231849447023 18.029580375476474 0 -1 -1
421 1 4.7757234883212565 20.113503078204314 20.378416494042664 0 0 0
833 2 5.329835940242411 22.141803798106665 18.187845353062645 0 0 0
201 1 5.8865717511167315 22.88327129630566 18.069688893750104 0 0 0
834 2 6.773103095829335 22.53065754859377 17.847577621927357 0 0 0
731 2 6.197710516039615 23.743454655816187 19.860506163956238 0 -1 0
990 2 8.193509088036766 21.20058776840864 15.963694250529874 0 -1 -1
279 1 8.423344867472865 21.90954954727372 16.615919899055964 0 -1 -1
989 2 8.338899512646034 21.34339258358967 17.38937362210038 0 -1 -1
391 1 12.468505476853846 23.865988811934884 19.12002028308295 0 0 0
699 2 8.724144087711524 23.594889666418343 15.818756537551128 0 0 0
611 2 9.274348567699784 20.149067812475153 18.980683439576136 0 -1 0
90 1 8.504103674429178 20.65108010783056 19.24895348631475 0 -1 0
1214 2 11.818225019114802 23.79825781913941 19.82847727770027 0 0 0
485 2 8.471956732516484 0.9244314422000461 21.04907992295314 0 0 -1
1213 2 11.901869641120067 24.284354032063707 18.429949296520277 0 0 0
877 2 12.847096409050115 22.166443239303636 18.518314711976807 0 0 -1
878 2 13.324078446178293 21.19354320537281 19.462023038159174 0 0 -1
223 1 12.91940161569925 21.20660444186721 18.620945416746277 0 0 -1
831 2 14.866336421301241 22.655011370403205 16.858729214707676 0 0 0
200 1 15.565865786283082 22.88142345083592 17.499666659518716 0 -1 0
832 2 15.420660642363963 23.83822076351825 17.64210132904295 0 -1 0
514 2 16.300181637319685 22.31866090802524 19.263361716977897 0 0 0
41 1 16.99870593541748 22.16772933273764 19.9922437208815 0 0 0
122 1 17.646289396491966 20.98641097723142 16.557405564986375 0 -1 0
676 2 17.44876232802287 21.83270420941954 16.144902365088956 0 -1 0
75 1 19.011724134348036 23.95205831156989 19.358554611652234 -1 -1 0
675 2 16.793942054750964 20.71059207467725 16.860446050937373 0 -1 0
581 2 18.548432909777286 23.10004158515612 19.559770136969746 -1 -1 0
1075 2 20.717143739450318 23.40493878010076 19.14470797407084 0 -1 -1
530 2 21.83788228593507 21.27237455174458 16.023432322933783 0 0 0
49 1 21.946832805676546 22.2236227210298 16.22457552768174 0 0 0
1155 2 23.95742302023171 20.230103096947445 16.509818952768146 0 0 0
529 2 21.789982412453238 22.321509526844856 17.134767174374407 0 0 0
786 2 0.43777897748320455 19.784983568897815 20.26484699655057 0 0 0
322 1 21.473636881920502 22.875769028667406 18.894133017802574 0 -1 0
1076 2 21.732133716378613 22.556486100831133 19.795140083926295 0 -1 0
351 1 3.7246109062091244 3.4832853560397807 21.103002614108615 0 1 0
734 2 3.8981066874025387 4.594451530154746 22.478061613939857 0 0 0
1134 2 4.640720746282446 3.089781608352479 21.062114929101966 0 1 0
1133 2 3.159572624404374 2.7705226689714406 21.37606296559792 0 0 0
273 1 2.6989640021888723 0.9035012553482422 21.874769320314194 1 0 0
977 2 2.082102653633271 0.8794170199394095 22.562274901262803 1 0 0
1211 2 5.773667395296 2.2012659525746505 23.67708387209164 0 0 -1
972 2 6.709594985981123 2.920186270121218 21.304527574849693 0 0 0
270 1 6.069860515357703 2.6133545878747335 20.6555007631872 0 0 0
971 2 5.988964575841664 1.6795614357612547 20.70505936102722 0 0 0
246 1 12.355114962503773 4.14797404809017 23.013181178117048 0 0 -1
924 2 11.476671463923003 3.922002016427232 23.460517479347015 0 0 -1
1193 2 10.82272767899374 0.40113201729243414 24.15758223372725 0 1 -1
738 2 13.338065479235151 2.3694179558249027 21.56026968296357 0 1 -1
737 2 11.992938742628041 2.3745309151291702 20.766271375563853 0 1 -1
153 1 12.69368989388983 1.7790227435146506 21.065020204842934 0 1 -1
923 2 13.013397703885374 3.764083845419106 23.561047503283387 0 0 -1
1182 2 14.697989373729786 2.0547312193503493 18.56202134079407 0 0 0
375 1 15.023639446326781 1.226018502483733 18.8126998807589 0 0 0
1095 2 15.477041494932706 4.089360198375391 22.17850016443069 0 1 0
332 1 15.257237628561189 3.178764622354332 21.864770862761773 0 1 0
1107 2 16.461849730468 1.1230062614648335 19.919104555748113 0 0 0
1096 2 14.983922026344764 3.2707091010849547 20.96165323860543 0 1 0
913 2 12.808034061042221 0.19574410459170033 22.04970010840065 0 1 0
1108 2 17.420025215250078 2.272589588425307 20.452216269022106 0 0 0
338 1 17.30557826849651 1.331614632562529 20.36545672336656 0 0 0
397 1 17.54849863912879 0.9799845780341694 22.954304566373622 0 0 0
1226 2 17.481623171146758 1.0974719072804802 21.97553159391937 0 0 0
105 1 21.2293472241948 2.9882523592466876 21.394104916731013 0 0 0
850 2 22.00855885914553 2.596807131143323 0.33193218007496567 0 0 0
209 1 21.373547399560277 2.277845973584142 23.970664615962423 0 0 -1
641 2 21.51116282598812 2.552439919017784 22.22977219030077 0 0 -1
503 2 22.133314133215116 0.30380372639171804 23.76539234054488 0 1 -1
1121 2 2.7633662435360336 7.2642962328142575 20.84040964510673 1 0 -1
151 1 3.72097189000821 5.271296006752534 23.19498786129515 0 0 0
733 2 2.7787047783052157 5.121057604555462 23.43252213722851 0 0 0
345 1 3.6989413062340035 7.154998043858164 21.135048234462005 1 0 -1
1122 2 3.7856803188425148 6.466320583636901 21.849923004945797 1 0 -1
212 1 7.317800972929153 3.64102001474636 22.585803979031457 0 0 -1
855 2 8.130763210220685 3.5602648249648006 23.12649829624088 0 0 -1
539 2 5.249819647336446 5.759659980088908 23.942385480506633 0 0 -1
856 2 6.913416382230989 4.514899846095805 22.87280100072902 0 0 -1
54 1 6.116347196106668 6.153106362970137 23.842355771952978 0 0 -1
540 2 6.0585934695020915 6.882145924375407 23.181774164956575 0 0 -1
1150 2 7.770048703216086 5.348398675489966 20.33912856823623 0 0 0
359 1 7.71981116201269 6.26868444443516 20.646171621869197 0 0 0
1149 2 6.9719140987690595 6.273361910137169 21.27207352489894 0 0 0
77 1 9.640805350081553 3.6184287398409287 0.0461978637628228 1 0 0
1159 2 14.448484241988847 7.973310367335811 24.26871970162574 0 1 -1
299 1 13.708405432540166 6.784304194872755 22.80829425492127 0 0 -1
1029 2 13.138597981650019 6.0146044518790935 22.801798922248576 0 0 -1
1030 2 13.527809306938195 7.326280310338026 22.004547870970967 0 0 -1
489 2 15.546416559143012 6.554202949855657 22.704531579714885 0 0 -1
642 2 20.273166740181267 2.926674163007455 21.339407694995405 0 0 0
29 1 16.419348874726168 6.212457104424279 22.86884868145818 0 0 -1
62 1 17.476704239587573 6.97747040998941 20.215033209197696 0 1 0
555 2 18.341715961465464 7.403713081730777 20.201904504166833 0 1 0
573 2 16.50911422683512 4.825779454744949 24.296969430728744 0 0 0
490 2 16.90253309176359 6.35565803442396 22.04548562450544 0 0 -1
880 2 0.5663708427432066 5.854264680830476 24.052824844212676 1 0 -1
918 2 21.419654453898676 5.871356816293332 20.44748809789503 0 1 0
243 1 22.118077632157632 5.246441257992066 20.404830565139893 0 1 0
917 2 21.771589189159087 4.398406524967544 20.677271788768056 0 1 0
191 1 22.68968609339898 6.59123479132864 23.36051527932319 0 0 0
814 2 22.618397982126336 5.98621160863087 22.645824953079433 0 0 0
813 2 21.765647239445993 6.949544144454756 23.51346457570389 0 0 0
836 2 3.2683012843012973 9.330556113244398 22.751038129687124 1 0 -1
202 1 2.541856594836362 9.16930342761663 23.39757368076633 1 0 -1
213 1 1.6580094729756842 8.705574887953112 19.702976881729303 1 0 0
857 2 1.1048386792038747 8.640260370755014 20.46772560999072 1 0 0
835 2 1.753793256894801 8.9622294813975 22.881469984783323 1 0 -1
264 1 24.25802795762971 8.60015620933397 21.969306582704885 -1 0 0
552 2 7.903518877317261 12.206515939102514 23.888600451170962 0 0 -1
60 1 8.193470416258275 12.572333273647997 0.42879810822957243 0 0 0
714 2 5.316256858402457 8.463539152177168 21.78325830432165 0 0 0
718 2 5.745881228324291 11.608819216130028 21.815111268242138 1 0 0
143 1 4.891201819923199 11.431903201400242 22.119270308701267 1 0 0
141 1 6.059763889639037 8.462605380583746 22.423754195902095 0 0 0
713 2 6.053396035896718 9.271709032965749 22.90678294555942 0 0 0
717 2 4.406825625221359 11.165073985826028 21.327019045663356 1 0 0
950 2 8.040885072172534 11.328685597057262 21.324143473254676 0 0 0
259 1 7.414091748403743 11.848963681573897 21.910114204276464 0 0 0
412 1 9.524925107819884 10.36625288514306 20.72878490661672 0 0 0
328 1 10.16060693104172 7.6229086485080195 21.414045584972556 0 0 -1
1088 2 9.434521798165308 7.065915782927258 21.052827295972318 0 0 -1
1087 2 9.970063344695353 7.759251677333323 22.324139571279417 0 0 -1
303 1 11.600851203139936 8.541560531696858 1.3969716766790965 0 0 1
1207 2 11.17934989244317 11.267678385760027 23.947605332743212 0 0 -1
1255 2 9.440417806664367 9.395283634019663 20.813959255585843 0 0 0
1037 2 12.503839064000829 8.543707293757615 1.0642602911625623 0 0 1
949 2 7.548558054718703 12.73344521607267 21.516107412947193 0 0 0
1160 2 14.574588533687692 9.360028913404118 0.6459306785175026 0 1 0
838 2 15.471585447074345 11.020038977733162 22.976541582907178 0 0 -1
203 1 14.546490000873888 11.086734317552986 23.338765398163943 0 0 -1
837 2 13.988342683948321 11.187381885329188 22.570106898327 0 0 -1
689 2 17.573112358792287 9.936776164284211 23.147068799935273 0 0 0
690 2 17.628762415788536 10.868734503257745 21.858708178630273 0 0 0
129 1 17.3359320000542 10.852198456569846 22.78830678970123 0 0 0
211 1 20.38548042517253 7.487888506682254 20.411439360823803 0 0 -1
854 2 20.47633693369393 7.989251396898493 21.17337011050482 0 0 -1
959 2 23.872998048997914 9.327815874718926 21.59095713757809 -1 0 0
853 2 20.61117083989762 8.131450172583968 19.739079057152246 0 0 -1
960 2 23.605965055956432 7.995188137408308 22.368466964955612 -1 0 0
156 1 20.655790912490378 8.311463696670476 23.059953772513275 0 0 -1
740 2 0.21388275565291434 14.46907367751875 20.06281646324431 1 0 0
861 2 23.728708699192406 11.764333958736279 20.384169140212016 0 -1 0
572 2 3.9327010165484224 13.145677764286171 22.621234986558086 1 0 0
571 2 2.876841362543049 13.968966185342245 21.943518540684735 1 0 0
70 1 3.256443298786805 13.792439527150503 22.801841968052386 1 0 0
1055 2 7.431288009823862 15.638340919386922 0.39283742249726816 1 0 0
886 2 4.339982391266453 15.835147575725406 20.74645677778938 0 0 0
1056 2 8.3318372551174 14.398286680655401 0.2028019218374447 1 0 0
312 1 8.284831856237625 15.366477795556385 0.1514381707054933 1 0 0
662 2 11.86423800015167 15.5097237749377 23.685006013870257 0 0 0
666 2 9.996506714356372 16.733802238317775 21.000979582132086 1 0 -1
484 2 10.950499443244025 11.737363713375112 21.626786512397103 0 0 -1
665 2 9.524150319595362 15.927972275963304 22.245146997760248 1 0 -1
661 2 13.067054024654773 14.627972297230144 23.64901264552255 0 0 0
483 2 11.347170693262678 13.121594438182507 22.205005406811384 0 0 -1
26 1 11.52763878981069 12.20169446471735 22.273799276630243 0 0 -1
115 1 12.517228924734937 15.050298923401819 23.07438306960365 0 0 0
309 1 15.375365251705691 16.176898562866533 20.218153973319417 -1 0 -1
86 1 19.413444408818588 15.683731972690357 19.956570462136877 -1 0 0
604 2 18.73001336685792 15.563593050218165 20.619812652813405 -1 0 0
558 2 17.982670282081163 12.413274221957124 23.342751813991846 0 0 0
557 2 18.94388649702091 13.59394198143453 23.483106420625898 0 0 0
63 1 18.12845751513161 13.249478863054735 23.87368111262078 0 0 0
921 2 17.38623404708797 14.64787495527606 22.095655172479468 0 0 0
245 1 17.419473588625788 15.537604506646847 21.688495773297213 0 0 0
922 2 16.561865266187862 15.78158441097928 21.250118979913807 0 0 0
789 2 20.76992993647831 14.651184371182731 22.121744864300812 -1 0 0
215 1 23.050789417782187 11.129385437799984 20.608426140713867 -1 -1 0
862 2 22.285318343074284 11.215472081432283 20.003288385877923 -1 -1 0
197 1 22.73084870862028 13.382630654563515 24.11893389758606 0 0 -1
579 2 24.25364585476273 15.007690018661911 23.45366013198956 -1 0 -1
790 2 21.207108189884803 13.934365787782125 23.475533225680287 -1 0 0
179 1 20.581886865710576 14.567648733850469 23.069371037053205 -1 0 0
825 2 22.868110160462678 12.43720271460705 24.1393378585437 0 0 -1
230 1 0.27190145021302603 20.151305975781924 22.427777966710416 0 0 0
1273 2 4.004470740834743 19.537458979352696 20.615653741948126 0 0 0
74 1 0.3760004456319007 15.854675196916578 23.608156158286285 0 0 -1
892 2 0.14773350679967456 19.220534562987332 22.186190652158118 0 0 0
695 2 3.0717103159799932 18.019753148604384 21.757696123838507 1 0 -1
696 2 2.4532173486137006 18.237351155724447 20.479398774928782 1 0 0
132 1 2.7167141518718183 18.757640114075784 21.224424112478058 1 0 -1
491 2 5.722567875553527 19.937975372196206 24.113247755840955 0 0 -1
768 2 4.499309691576636 16.375706754253052 23.21806963887621 0 -1 -1
168 1 4.68806575905842 16.743158528737588 22.316464160574984 0 -1 -1
767 2 5.368414174274314 17.448453748381347 22.367033032734522 0 -1 -1
353 1 6.561741809314448 19.020250433813963 22.33449750934062 -1 0 0
1138 2 6.009787311669659 19.454445855208352 21.663022277689645 -1 0 0
1137 2 7.500228804195293 19.16743160701531 22.202132877000434 -1 0 0
587 2 11.03995143826996 18.433725283116118 20.076088759418653 0 0 0
78 1 10.90608133335598 18.10417359326634 21.000918760294265 0 0 0
588 2 11.843388533550362 18.018885196093645 21.334075484493738 0 0 0
1035 2 9.840786819083538 18.810630726369748 22.236042630375763 0 -1 -1
302 1 9.223518158218402 19.408720812784907 22.698412917055013 0 -1 -1
1036 2 9.574759678953768 20.311284633376072 22.492225384075457 0 -1 -1
1180 2 16.140046104997957 18.266836967036213 23.574801483701755 0 0 -1
479 2 14.204914968817622 17.48659717085859 22.986648098831047 0 0 0
480 2 13.108726039454243 16.548431779892795 22.414320610799788 0 0 0
1050 2 14.876833836830087 16.74263023929872 20.849078553108637 -1 0 -1
24 1 13.726774234791401 17.317667016435824 22.166769576715975 0 0 0
1236 2 13.894336122603148 19.669977439157357 21.67325959652128 0 0 0
1144 2 18.706816760090742 18.720092880013546 24.0501374734133 0 0 0
599 2 17.583494726973804 17.34562569140539 22.454766340177517 -1 0 0
84 1 17.578942406054864 18.298985071782155 22.62627970603519 -1 0 0
600 2 17.76086926721877 18.732079609588027 21.800252332341675 -1 0 0
891 2 23.751114959394812 20.431210044767344 22.77615388923461 -1 0 0
621 2 20.811353948222393 16.70948822708985 20.009636862978663 0 0 0
95 1 21.518697244326198 17.353271630444883 20.28248406161702 0 0 0
405 1 24.21038759021182 17.1755063952993 20.920272745209438 -1 0 -1
1241 2 0.13857546931707834 16.569516749207253 21.624093586504866 0 0 -1
580 2 24.14479961793162 16.489243491686334 24.16171514128271 -1 0 -1
937 2 21.260787922590932 18.946491656776846 21.96263202728896 0 0 -1
938 2 21.052416863125 19.435634868979527 23.4205220405537 0 0 -1
253 1 21.491845913878564 19.647460222391455 22.578665791115156 0 0 -1
416 1 1.5059120956277146 22.717532574058897 19.789619486650242 0 -1 0
1264 2 1.9066838604563054 23.239972061865355 20.492838838818724 0 -1 0
978 2 3.3577722117296744 0.2316565427660449 22.15848569207967 1 0 0
576 2 4.448550558966809 21.614157571891244 21.423906251195785 0 0 -1
575 2 4.937540729034393 21.992976097134267 22.939192966226244 0 0 -1
72 1 4.707812093699292 22.337617590721454 22.055985433990053 0 0 -1
150 1 6.507354441890475 24.190444064676264 20.688616000572665 0 -1 0
732 2 6.139866817420088 23.43489446211276 21.159682340807983 0 -1 0
1194 2 9.861768705398301 0.5552131120446278 22.948069227813832 0 1 -1
612 2 8.781327134253365 20.978247430283467 20.05779646156828 0 -1 0
381 1 10.064783939803712 0.005563911087161395 23.712096003833235 0 1 -1
82 1 10.591143825884462 21.888025060224404 22.343483629357095 0 0 -1
596 2 10.419629534025592 22.71025911607811 22.804687254418713 0 0 -1
595 2 11.513394266824916 21.897456575479204 22.218074144040088 0 0 -1
513 2 17.283324532286088 21.28566773148064 19.83303005302553 0 0 0
860 2 14.560708761911885 0.017442358756871904 24.29280946159309 -1 0 0
402 1 13.786315464531508 20.560541161151725 21.350294026941587 0 0 0
1235 2 14.45947547368834 21.099920728586298 21.790341813004325 0 0 0
241 1 12.924880463898027 23.676186984300195 22.509824487964718 0 0 0
914 2 13.708269916999903 23.20983562928217 22.295808408170764 0 0 -1
114 1 15.481640395831064 22.187817436854182 22.897478097510074 0 -1 0
660 2 15.42209291199687 21.73018847247865 23.77559733079391 0 -1 -1
659 2 16.431950594839464 22.234402578868654 22.71945351898341 0 -1 0
1225 2 17.881551612818445 0.10344444078118946 23.022365179143993 0 0 0
793 2 18.651871713378338 22.081548721266287 24.068536466458863 0 -1 -1
181 1 18.419772273610732 22.390585518476854 23.16394028196935 0 -1 -1
794 2 19.210435067498945 22.482018081421703 22.62412056599384 0 -1 -1
504 2 22.397909570664762 23.264352365590067 0.17921690270707638 0 -1 0
334 1 21.185396052869585 22.525565490965192 21.5802393096391 0 0 -1
1100 2 20.83058811324286 21.690845063744277 21.818049315784606 0 0 -1
1099 2 21.697341479671575 22.79643057053669 22.3563211713032 0 0 0
36 1 22.551987065393376 23.714721887196067 23.640625792859556 0 -1 -1

Velocities

741 -12.41695661185062 18.975162951110143 -18.3548688402091
155 -2.3339542185892417 6.0642166157485295 -7.966553772791988
968 5.0869542934208285 -17.544261969542983 7.240790827887742
967 21.079088558462765 10.416380969591636 26.978525105851883
268 -1.724147751795807 1.382510292274314 -3.514980480962178
607 -0.6005123253790019 -3.28861605064444 2.3575489021528675
88 1.7009059116854528 0.05061250255062441 10.725979145819373
390 1.8828330477390622 0.5648365519359715 -0.07491622319655433
1212 -32.58768721423497 -9.241689257261154 -0.7582209813871181
1251 -14.89876735579848 -4.8389881972696145 24.974640764378226
410 2.2851300624470374 2.2060009274544368 2.4330928528678073
386 -2.1138645042473563 3.393007591637351 0.25907041210845433
11 2.2478605209027323 0.5897940254034642 -5.820199410530884
1204 -0.6518357389235416 0.9249488263631095 23.96096492706012
453 -38.831604253704015 8.444251306181378 42.14690508363472
256 -0.607102861170144 7.985547991882656 3.552783111651389
944 -28.565976655841364 -8.164484953330591 26.68510301888144
350 -0.7633844123649105 3.3929965578793673 -1.5031859808057337
943 -1.8030087992340427 26.84545998296677 -22.500895235604528
585 18.81555084704292 12.060730967054452 -0.9741901667777297
1132 -15.486490022208823 7.678390128465098 13.973679694886622
99 3.450943260421604 1.3337175447488594 3.2382359120635864
629 -8.277386931509707 6.339893008457866 -2.3743087932204774
630 3.1635578521969765 -23.898671683671616 -5.744377630329717
674 -1.5472501212730823 3.162008260525621 -9.380611951325823
214 0.25863425529870737 -1.3543679041138201 2.6041498676716284
121 -4.423574717079759 0.8784497439378863 2.0375260137585274
985 13.17119204528558 4.671151608745265 12.722885951486436
277 -0.3592844532241885 4.50441371021583 1.9144062023031834
986 -18.23268467859884 -6.349237074904354 -10.405255916141499
20 -0.047226766493604556 3.7986812100584526 4.29199256721154
471 14.04415819609986 14.644107672871442 -9.256590238436464
472 -7.4969751033452345 -4.899962718752225 -3.891414270631014
859 -2.6016060700294164 6.2866108515138865 -10.47519387860484
574 -7.460755233833372 18.026600137019337 26.281171338064024
849 -23.071568312438973 -0.1651587153773535 -12.262937175952242
1209 1.9360559774663386 -27.45570410760959 15.036044713569787
389 5.391151529708154 -10.071034686035375 -1.2022729212862877
1210 15.79777707728957 6.559305773493076 -3.815274142840579
533 -17.768588041780124 4.570793494952195 10.44056544560052
51 -2.983534488867971 2.180345651374694 -2.720784251926241
534 -0.9483525620826028 4.5816157973494605 -26.535649920650318
1020 -34.31943629826801 20.28450966409799 -0.521095431645929
294 -2.850416198538426 3.101951444534327 -3.1723019505209153
1019 -8.5471986572153 -10.90897969079505 23.474248951628756
224 2.558351876073648 2.2304260103095594 -11.021760677128672
770 -0.1330104295597415 6.402485161756867 -15.006872882618868
1252 -18.48010978756757 22.61777123497915 2.518307253135632
1065 22.174939662881727 -20.247856405146706 -19.11731001844475
317 9.251251906778439 3.2215477060107487 -0.2614434055254528
723 -7.490997018665118 18.172213712904394 -2.732810680487052
1066 -8.674815682459394 -10.397607723392428 -6.861872856016464
454 -19.658644906991487 11.76136271778264 0.6423037649568473
1060 -6.156012336443642 11.410875895813808 -3.4613607417293135
314 -1.5488227820301457 -3.010344233581837 -0.16263981211603393
1059 19.68687765810441 -14.579657723484303 15.593083622606777
1177 -14.100099269678992 0.11157938091107454 38.20316997153218
373 -8.471487911365212 5.9549469716182175 4.443144297341889
586 6.33352254575518 4.810437420755776 -16.86536788764292
615 -11.617354586213551 -4.062656375750164 27.984129677216906
244 -0.974714679351481 -3.0828838855201806 -0.4790092839585496
482 -8.805984782824575 -12.271473476084255 2.230148412064561
919 2.4803207707008124 -4.9545200451660945 -0.4059924668460379
71 -4.64985933911634 2.5197383911487257 7.2057328013277075
920 4.398726387038251 31.16329922190328 12.233948353820297
882 -1.5441944903327771 -19.37082456083666 -6.854242333066683
225 -5.535671983780626 0.6792028866041191 1.9730727944538393
614 -5.757211446435096 9.868019528420044 13.446966169867201
91 -3.1534051146352637 0.2436374372866775 -4.77882360683869
900 -24.148735848554967 11.304824712715407 -26.112433040297333
879 0.12263367229925966 16.775277975417026 14.99418648914188
613 16.93808070052054 7.603293296127618 -1.2830939596995825
769 16.579605314568 -2.030608808844695 9.010898140847118
169 4.845022284939337 4.331791985364798 -1.8205964418931126
808 -30.159769954170248 31.485591701334982 -19.420585809023944
1012 -1.1079505105347978 -10.513757591475136 27.460156442595046
290 -1.573627551584592 -0.08445854076057766 1.2979145877060736
1011 -17.047538774200294 4.0117058526788805 10.638432013574738
545 -15.683835758928623 -22.69543749303952 45.40522668989038
50 0.1990821430762687 2.3476819230074852 -4.945557913384064
1068 -7.145546059553166 -26.28898132026716 8.65754221927487
318 -0.4233176877361525 2.8496656924339687 -0.5421674902325646
531 15.209099729256097 -6.318380618127634 15.152692059785373
546 27.709183925484158 7.725176192821769 -13.96644165925102
57 1.439616237894955 -1.7718369909169265 9.200754708881187
551 26.22583426532397 -12.489889007153518 41.700428432671
426 -1.75054888772201 -2.2388400032764353 -1.0234606383078064
1178 -26.88942256561118 1.493389888643702 14.677132267421541
388 1.0133730799565344 3.959542359013728 2.8213895507766975
1208 14.886255990407468 -26.557735652435372 -8.285289317568898
982 -5.1653357061147025 -20.21096792976931 26.23266222480659
1038 -4.077502889598191 -13.161901449559197 10.366996492157018
25 -0.8045985083550442 1.7745587450060305 -4.742777238795239
481 6.897647548213926 -0.5056823192074159 5.484347109877901
364 -1.9376947851033426 -5.443330922275527 -0.17836247108135225
947 -11.955064326613218 -27.67729023066923 1.4469433584535143
1240 3.728039300413622 21.3966420703456 -17.704091073885493
234 0.9320642930387708 2.011887266111347 -7.248226496994563
404 3.8319542597124197 4.423092076633829 0.4085462248234335
59 1.5854599809894763 2.247921367979238 -4.869630640791703
899 -1.4823407599398088 8.934313507987577 4.707033413405943
549 11.607064682425484 29.143718465151736 26.288456168430432
550 4.127109962017012 5.639805254710474 -8.990169261722448
1014 4.295941021279633 3.41973664869493 -1.2974707566408532
744 8.915115545086392 -12.747905293277398 8.236922154720453
1239 -13.090762571087492 -17.125768748256526 -26.298827196141474
807 -7.610800774427446 -27.623810705436934 13.523354205582335
311 -2.499600169366321 -5.413225981596449 2.2490234867896817
1053 14.320711799260915 -31.645474141357866 4.283471329108599
1054 14.970773783187257 10.078442657028155 1.0997621744599069
1067 -29.68814069525553 -3.328494372309746 -2.5108281502911773
743 25.174125560828145 4.881294393333286 2.774726735562171
1184 12.235084819418967 10.295323248526488 12.480112105151889
1183 9.790709248716576 4.5417020973513305 -0.83197738446439
376 -2.150708404144423 0.41975517943466856 -4.955911503779571
48 -0.0331703921693679 -0.8980471125453732 -3.3689676485918842
527 -1.3422721127539208 -23.578857926811622 -5.471731972131011
528 -10.061389709564947 2.4598941311311773 -0.9206814806816821
497 14.387540736381982 -10.513098292101196 11.824445572576543
1284 -0.9292012872235703 -5.822288120325718 -6.021976508834058
451 22.865223348428593 -25.389333417134054 -14.096542474552109
452 18.86549684113441 -13.39600991346364 -11.829702089088645
10 -8.826219658987817 -0.20448998656762452 0.6684143708456423
1283 23.44719931724729 8.25911000394879 -7.273485313458062
33 0.41987136438439904 3.0842019765622855 6.4096040135065975
941 -21.056317891311554 -12.769054021515958 -15.464962512243003
255 1.9507475108957215 1.2132835367562815 0.5815787728295277
1176 -3.8245582451979407 -3.1676804254537103 -0.03177978782798749
1077 23.132512066698013 16.329140468180597 0.9092050672933436
1078 -0.08199603476374753 -5.581760332557905 5.17538337032211
323 0.43992623724344615 -0.06304355977078133 3.739594991915358
1175 -24.227683984270342 -12.370731309654015 -24.34963848371744
1080 -5.6553993012769155 -28.33782572272585 -11.874087964453178
372 0.907130956846081 -6.450794606962796 -5.356157872055711
324 -0.835425065928961 -0.10238851066373997 -2.4033519118339797
1079 21.501649624026495 11.095538180977425 -8.391670264200787
1123 4.374589927504507 2.1771237136292942 -32.66973226282109
727 -18.30538735263595 -1.2609227655748128 14.942994606867666
148 6.746152620753673 -0.9516668178082985 -6.418225190907909
779 12.70315591473598 -2.953064023398842 20.696759106428836
346 1.7549474114889323 6.109363468852151 -2.414344784049183
780 16.417120848445574 -22.54119320255308 -4.959655859811993
643 3.4692690756464892 -33.41759015072778 3.5257811498801264
644 -0.5254343474394786 -43.032543573796204 -28.29733881138578
106 -5.1218111696294875 -7.31483013946383 -0.8152299115800713
208 -0.3869494345633409 -0.43570415788194095 -8.573636776180994
848 -12.204004643202353 17.686173198963658 26.36875371858546
1124 -14.007639667270373 13.90920242679828 24.85532088970249
847 -14.860087645942565 4.125335600452355 12.646067972362134
174 7.217347816193454 -1.8308872236430325 1.9516453259696336
87 4.694212740550978 -0.7604375207770652 3.617915680610904
606 -9.883276121006238 28.697229075501305 -2.8904403185915046
826 -7.8285025292287544 -2.533640615144848 -5.9870154912989415
605 -9.242678937431144 -16.606380815076474 0.35257725840774695
109 3.5976122500064696 -4.179330821642571 1.0969853064582324
649 3.7754090989203513 -18.023081751492114 -2.5266516051250782
650 5.585777458660998 -13.882317616413257 4.665167389471674
566 -2.833990675776784 -6.867638180164988 -10.673796315792808
67 1.7238135487237942 -0.7261074101441325 0.3994463771183457
875 5.650532633597919 22.319685255972793 -2.6483552831911705
565 5.290430061247785 -2.9938147136442734 2.7742363403594537
1296 -1.1296877253049256 3.9581267008844634 20.39812851050951
1295 -5.869224997239036 -28.41456235908147 3.471308698492034
432 2.0514478402138394 0.6261133254407012 1.1375495602383354
222 -0.6229047409311881 -1.6505897790201811 -4.274782553255404
498 -2.9357387744325334 12.829266964979816 -19.592715564296554
407 3.865117158501266 2.7597418362690034 0.6567982424318645
1246 -12.745031910807631 28.82543472465573 20.339647442185214
1245 -27.86292346040942 10.498834362525647 -9.365512790656881
320 -2.430739479078645 -1.2210145456632753 -0.18693236729349258
1071 28.519689704641962 12.81783991939316 4.4323214272671345
1072 32.20535827396587 17.72204982055123 16.898187305275407
138 1.4222421192089927 -1.202193498370765 -0.8538677847881542
708 -26.568426089476905 1.054404216573999 -11.394473670175955
707 -8.152851166013829 13.935306915343826 -6.727180864089838
333 -1.986881579390875 -0.8804070302756252 1.8733778470537263
1179 -45.551394326326516 -4.967084087247021 11.88601595880278
792 -31.85559177101267 -8.248414020284345 -40.48047456653098
374 -6.8089795887223605 3.0190243552628533 -4.584435862814629
685 -22.219194543426426 29.259135993341136 14.772822726523223
356 2.97297633548245 2.6047396716537468 -3.0157030278583665
1143 -1.5393799679137303 13.855481084836443 -19.284935109121484
127 -1.4235341587958201 3.8498689256141 -3.299047684468505
686 -7.955002701051511 -34.33063681802265 -2.1398035620514957
640 -18.00912636549143 -2.0119331163458223 3.974588941547895
639 -12.107756339486775 -12.22341234370113 11.005964823826561
104 0.17915656000596614 -0.9149941950393724 -0.8680172914937518
663 10.591771703137697 -5.9523494998176725 3.849920779360064
369 0.07249226333791794 -6.11400879688354 1.089589133785763
1170 3.9055908864736915 2.1860617919007375 -4.694991349830982
438 -13.032125474497846 21.00701734677315 10.667742660295604
664 6.990277055646534 15.516263595553895 5.074557127181578
116 -0.8009041135455615 1.6576366774935662 -0.1952046510438983
742 -3.844004606383994 15.304441231389212 12.364136632994418
339 -3.3278360015644832 -8.182221862234444 6.171410017997175
999 -10.731929982856531 -11.71512749222336 14.707923639067072
284 2.216450744154799 -0.7996512566215984 -0.07326277986472347
1000 -8.466389883981249 -9.831737841554453 -13.353853254671067
1110 1.6886989209593966 17.890874950059597 -8.735729506204958
492 3.667547929276575 4.234435827345836 -6.250638490960993
1229 17.58625869015182 -7.941935024821926 2.9879958848736505
399 -2.9880383326652704 -4.839491965053176 8.725149370158091
1230 21.10995712260242 -13.728660302447706 28.44652250687476
30 -4.072940892745239 1.6864699854385063 -2.822522665298651
126 2.1220784645049813 3.3919335263807784 1.4573373360766166
683 5.729099015860786 -18.24756143874183 -2.377291597793006
1203 -3.06138662395302 11.289085295857978 26.383314268960063
1097 -0.728724410826402 -16.07614592583699 11.906630412003812
1131 0.17449001735632938 -16.50512867159089 9.733369358389206
684 3.7829616478658674 -3.272330992273263 -16.919179921218575
541 -9.643186892232178 -3.2889108137150442 -3.306644211958548
289 1.7953566234159928 4.720528328396006 -2.5719826717409777
180 -0.5557731898208568 0.9572805505043426 -0.6441665902444328
1009 13.073893938332027 -25.862774495691436 2.011490288706868
55 -2.880863965290704 0.32090641667482694 -6.533029992639658
791 4.963666451294394 -3.18267617109252 3.5163370774831524
1010 6.169086825316505 2.9367576222889946 -12.552946217750542
542 26.641342856652976 10.429006259095601 5.671286630480395
173 -3.9961408125079507 2.6152593006108416 -7.095252142939264
777 -4.361935260731676 23.98615904026793 -19.898402667072553
778 -5.822034161091397 24.43932315891413 6.4906895856968125
784 -37.82537221896405 7.380633086797886 -8.646088123548907
1169 -11.390869494895222 16.59240312873872 10.944645387907467
176 7.557310638796645 0.3087734609764122 -0.9511607544371474
783 1.1832451365595034 5.293476324967523 17.741664879424253
1018 -6.8261724182692065 -22.25886386518152 -23.377458640204754
293 3.258285624219922 0.7864143572317706 0.06691319044906292
608 35.697707980360015 -2.7760754680742887 4.040148005591798
1063 4.899497358243425 -11.008910672054265 -17.398517106267576
316 -2.3848787571324475 -4.365324620407598 1.2399441502702677
1064 -17.3204607485362 1.802507204598784 20.880907019422526
653 12.869232802966799 -13.095942797013212 -23.325402928753743
111 2.6195628610051807 -4.914287631194952 -0.2412255198660733
654 -9.113687806204817 -3.305416608287311 -12.54878289123006
149 0.40706328788747687 0.13263349875746502 -0.31524747463294006
730 -17.579509032353414 13.960607190560864 -7.501215547336801
251 -1.1691957815139427 11.098518214306948 2.556766716010483
726 18.339263232943665 0.5836694658793684 -19.026420563366177
934 27.50681921549826 -23.085588923047126 -7.909320814432188
933 -39.49356153839625 27.767332742837166 -18.692434553828278
147 -4.848476269963875 -1.6217249026096587 -3.646770574259924
725 0.46682131712362496 7.842788863336701 -36.89536868854263
468 13.86493049927128 -11.002875242196744 12.90509853484494
18 -4.4922504491419275 4.449736810487126 4.527865969155462
185 -3.2557881249683907 1.9899652301466924 6.627219351345647
801 10.372451367131614 5.88404402422033 27.227374665860122
467 9.192025228082201 7.660494244670039 -5.8520837698934045
1129 -6.2844353301547855 25.00925272200702 -17.52683572684705
673 3.992305275222425 28.997680646083403 10.401342264781922
100 -3.5670306935585203 1.8586357081777203 -2.7093834112021957
632 9.113079317422855 19.364600613690193 -12.79182995649732
1265 16.000714770524564 -1.2780186805249718 -3.0633724623268987
417 -1.0328648439324384 1.1122849044772722 -0.7192636241444051
184 5.553083818945279 0.8507998091410837 1.7283479309339829
799 -2.8457088544542484 8.34609685293092 14.372926421195713
997 -1.4774651141334176 4.962470946458181 13.265741982843787
283 -1.9009676818743608 3.3051970528813586 -5.839121564972234
998 26.490397813982995 -5.0157209579512685 0.4549141341354758
568 4.002101920953713 0.21279876539309028 -1.9978345750568904
1233 -1.8463492358497677 4.611121104997843 -6.151230108299152
401 3.1106253018840024 -6.852177580653746 -0.17133570866401107
1005 -8.29369488229147 29.220315387473647 -17.18956152913668
68 -0.1485036191983634 -3.537287893434752 2.939541957257464
828 -23.90409256215843 4.76922155108656 -12.513266275150277
589 14.919475859181828 1.3200464048301999 -15.381867171527386
287 -5.710919788894954 -0.324392535848409 -0.1985172805653888
1006 -31.516809203495967 28.936864325325363 11.686137637202716
146 1.0566228990102964 1.4375317243034458 2.6144457986586276
724 -1.2374847061475593 -1.2836445176330598 -24.996435939692923
1282 16.829596991784946 18.306058429075765 22.689473687647812
567 8.816710597630323 12.297152221344641 -8.447503887240153
617 -24.290875273206506 -13.914616568039218 -1.7222420747554026
1281 -0.576084757226341 9.719859703193485 9.942705557062244
1130 -42.79708220580026 2.746981873705152 33.18045687829007
93 -1.3501361479972527 -3.391060809700126 -2.974611799206638
618 -1.0267314294085175 -16.281186098342342 27.119330609851854
839 3.2378340072297904 -8.303110864409408 -15.583767766319033
840 -7.022495670620891 9.233600691360014 26.604012133029077
204 4.771890252712782 2.1367718382961205 0.4587687874402134
987 -6.539529848279159 2.4584813307554523 -29.43969631479438
278 3.620781634651579 -2.5785531232449874 2.730660161856547
988 4.458115353964394 -0.474180285176909 -41.18982199003029
800 9.82596364507242 -20.304244820977313 -7.607509982271354
554 12.014788620148215 -6.861665174809056 4.81006957546002
1267 7.825750446223022 -13.310592836109818 4.835191634122217
92 2.358656318718675 -3.147657692218148 -2.4080460849228333
553 -12.452639197893262 -2.6294699238846246 -8.238921758345864
61 -3.2575755966002626 0.10690647572390045 -1.8449296044529617
881 12.57520346259046 -4.747241269139891 6.559061149742672
1266 -21.630224033383488 9.691762742885242 1.971497011727371
274 3.385067409471033 1.2305633781084964 -2.1378326032923787
980 12.061381908146398 28.833672665378515 29.763366820234285
979 6.353456957470352 -7.251133603151822 0.637229955266815
433 -5.371503095732822 -12.137832577289569 -1.6495213039692451
1 -7.195379551975652 -0.9731484825986235 -1.1280408121860315
1083 -11.961647361372163 -6.760036038637167 -16.194486944135306
434 13.380687665511743 10.506730707222852 8.858723025136262
1234 -13.364389768557418 35.69191787004853 -14.28122594413614
326 4.510774578271507 -3.8340782749746016 -4.295509152924208
1084 16.987351003803028 15.701876816333915 -21.51373612338188
532 -37.51715197378526 -10.933008269069573 27.4121366589733
827 3.5086219429637024 17.440421379470685 14.224526727267076
198 1.7903002653855502 3.278956266117184 1.13517999709237
79 2.2726002356426735 3.7317535271410853 0.4908281282956538
590 10.430454853232417 12.797968335448232 29.66022999257078
1228 18.01715705811947 -20.38611915267037 -23.078844160080624
1048 -3.950223004530266 -4.7762518346213625 12.04594206089325
776 -2.200029096350142 -24.63381504538149 7.590519777406125
172 -1.356885008451968 1.6780377518183396 1.2457402026772675
775 -23.43184817356101 5.367136964761546 -7.032666906754645
398 -10.505269453622427 -4.5511053965799695 1.1029238414003404
1227 3.092635248799955 -16.405934920720938 -37.417132354807805
981 32.169307884811076 -21.380180803058217 -17.84179907557173
275 1.9807299580859792 3.142254318454796 5.31880306175787
1221 18.98432081788177 4.935263619064296 -29.428511098630572
1222 -31.50167549770953 2.496670840849422 21.190499408044847
395 -1.4791133638543228 4.148594497563839 -1.7218347995725651
1090 -3.5873016015525048 -0.5385952856986397 19.818403115581535
872 -5.314301370228102 -3.7874988281762585 15.562237074736933
291 0.5714118911168165 3.542292978901823 -8.674842851092231
616 -5.622343049321131 28.12789875472946 -2.4009777451501955
698 23.700189110032266 14.280934326734718 -8.848723190411315
948 3.735130954083336 -11.231955124144175 -5.824698241834397
258 1.3413060298729047 1.9796371733575928 0.3425728107017937
1260 -24.40614394458188 11.136484285977641 -13.710761565498201
1259 19.294474383428277 -12.368812561440063 -16.543808705241517
414 -4.73049527330509 -3.7697076962437874 6.627298232998072
697 -3.1504455011666215 13.10999935721331 4.891497015369889
931 -15.344878730303044 3.8661648412767375 5.619071472001601
250 3.3306728345569527 -0.482799454977442 7.5840714964875895
1293 18.226412223766577 -31.03367600991686 5.255142431247275
431 0.2695133756173303 4.702840528263787 2.3706372425216187
1013 -0.21536534570884777 -16.60072835221386 -11.543447142254491
932 10.467382183532807 -10.975940201554133 -9.257830480432858
188 2.6647959354370534 0.7076760631561307 0.4948687502231503
1294 -10.291674986529339 -8.510395976061197 -6.712429317866763
1198 4.487992661777676 -21.96351410852497 -21.268351049729716
1197 31.132931197536195 7.175299091163922 -8.694147609441632
383 0.47627854366209627 -3.6296561361018114 0.06699631160287751
1185 6.167497459443675 9.785349919354239 -22.318712826259215
956 5.543656888129425 22.945846317741104 3.017301908928578
262 7.395770860494318 -5.349101220076656 2.9193495329909194
955 3.6727181929877526 -15.328824261426368 -6.674232841947474
308 -4.985104588328361 1.7164908938120063 3.5950994294085503
1047 -3.541825802081921 6.99114635330201 25.393685862468686
459 9.653340779826861 -0.3468840445804138 -34.7990846199018
14 -0.14119616763195345 -0.28649572035225934 -1.888770808761823
460 -4.9941910875381925 4.818056843762155 -24.87442467310709
942 12.631594267791119 -5.241509806619409 -25.849255785998867
584 0.9142519279730561 -19.1289711951978 6.480508397776166
76 6.760920123226227 8.991562514039588 -6.07111969882504
583 -16.654510470644706 -10.929299156754338 -7.1264162393774155
1089 16.103729678344894 -2.63022639866886 -1.797381345771708
728 -7.449826195715129 4.0989248972626156 -6.649528469946768
496 9.171363103562271 -9.223053562488577 -11.892025831572695
495 1.4372788014650384 6.393981259699907 -3.290966283600277
815 2.961460250935137 -17.333746838834 19.904051251176778
32 -4.5941591390124366 -4.280900384679355 -1.7398694262236787
1114 8.379159004412823 -14.394389896555998 -27.20072844844616
428 2.5860385208051384 9.400347467934175 1.3016496607084007
1287 -9.460028666460179 10.05775978581183 -11.496537551732471
1288 12.37676315270169 7.938588548686022 -3.294876699135337
341 -0.3808264024303598 1.6833118626612908 1.3951710491284777
1113 9.627407510479886 -23.269230840371876 26.943294154531994
1186 -14.85770394656022 -32.20359095252043 9.932507495168252
377 5.618678858858749 1.1957016665906994 3.5148875678807667
939 -18.56478102194948 -13.596924495564705 -8.507226883704881
940 7.652650582840524 -1.1817410323027546 2.8994491847650736
254 -4.75673542757639 1.9169077440040594 -6.826740769133764
3 -1.6655239606026082 -4.405634806419687 -2.837652066862495
437 -20.361800468643303 3.1532022160727684 -5.566661057454121
876 23.241249106003615 -9.054632686715594 -17.47659478271535
128 -6.008673798482994 1.298325624343704 1.4005874603754158
687 14.078607486175166 22.51645442700736 -12.156673386110066
624 23.086477672072593 25.770310083641153 -9.321153505891948
466 -2.4546497787394417 -13.517188725628547 3.282645747923923
465 -1.318849980190017 -16.333214695915437 9.305162895542347
17 -2.827962436729792 -1.151946366812093 0.6007534821925334
766 25.67400392920571 18.61498953827414 17.823196086002287
167 8.582912899588903 9.218731166474418 -2.4923242946971937
765 -10.922869147268965 -0.9130419236098185 10.357502762861374
1098 -33.88686193146308 11.024110420441438 11.139822154711306
1257 -3.715022696929993 -9.01447907723191 -3.269258060686261
413 -3.3769717576460043 -0.21554594457445975 2.6204746350809445
1051 7.098808153147636 11.730550522465654 36.64309664238926
310 3.206837637868382 3.4662616897724745 -2.7031074940793816
1052 -18.648994573289 -23.230502663677033 -27.259134485240015
1258 20.7806201182509 -24.647718760407827 37.30717420700298
192 -3.6429828592668834 0.7225335909334448 2.720779366563754
963 19.751735047815252 -14.427350510011934 2.903343815964935
266 -0.46973153639089427 2.224256648370018 -3.2606354689959907
969 14.984628876179922 6.024248816417246 -13.204003060977161
816 9.37923117452364 19.729056659743186 34.210801312966694
964 6.914301331148383 8.714184720114858 -10.601956937922433
1219 5.759179204581867 -25.851793893876103 -5.464635706000813
394 0.5106388272053588 -0.9599873331285506 -2.3794514167278944
721 11.129323007773182 -7.821465006062309 -3.5170128586697165
145 2.347227674862561 -0.8582567737319436 6.609460644797135
688 -1.0453780311202092 22.839174568105793 8.168065640267349
307 -1.4661757478904776 3.1747685297149286 1.802782704169266
1045 5.614494922278483 -30.53430860850813 49.920929777460046
1046 -25.13775373772289 23.90215318204149 -16.421142443054364
626 -8.67300024254196 15.519984463080036 3.974050181090819
97 0.23733714471926862 0.8397908744693123 0.7258562292283489
625 -2.462174404761547 14.838449618010568 -13.890089645547961
928 -6.34100591525898 10.18361041208996 5.589924961839722
1109 15.029587482768553 -8.602165669555314 10.443448904835492
821 12.886453548511922 -6.647468325061372 -23.233981122672297
248 -2.687420377785057 4.139719724109451 -2.9786348430827005
822 8.551962800960121 -3.771050185431519 17.344879563524547
729 -4.820826731024928 2.4150027859684817 -2.168384590106034
929 0.26197544537818807 23.465570756012095 -3.670873056608288
1163 -1.0145008725871716 -4.692223433176462 29.301634428381035
366 -7.332160520309661 -4.369723855461778 7.930197796496774
927 1.8521801397099227 8.059860988429334 -3.9033787881486046
1164 20.834782572362933 -13.512122175802753 24.582685453752156
411 -1.2015744326610045 -3.9048313962759957 -1.4751392643299757
457 -26.29618421374222 8.857502682840492 16.497451903878726
13 -1.0200986258880758 6.520652735507838 -0.2599567878619634
1253 0.5471583170278822 -1.7531717470293546 -8.437437993287363
1254 4.864958352040253 -12.94055288089802 5.302292834461926
85 2.758544644456183 -1.9373712945756283 8.331897322456944
601 2.567915163140945 3.23164626411741 26.264539289885985
602 27.051425770014543 -8.733346071327691 -6.129677639690871
458 -19.813064257735487 25.58058678043368 -11.196122842710672
631 0.039381006901487665 5.97045066216665 17.601198439726947
400 -1.590593360395915 9.034155561071298 -1.3449321836106976
1231 -2.8654295615257506 -4.015183362361661 -3.8038642921265726
269 -1.5110142729194473 2.548038366698104 8.32360693323554
970 23.83848726141137 3.1481744241072134 -7.554751472820648
1232 -15.172693575642928 4.620257288495672 8.176706962856702
440 15.721606614631458 -0.9939261512445208 17.93902968880493
4 1.1239765851006223 6.268365177856814 3.5645723740322666
344 -2.7995212189637773 -0.15954319259223768 1.7393703781773795
1119 -18.503669509594364 -7.504198139931655 6.282783544469884
360 11.233256249306809 -4.270576610512904 -2.8856527498906277
1152 9.927172967183262 6.608191344868186 -12.184212110827714
1120 -28.700504047059322 -14.952875619809795 22.917567880033694
439 1.4155346345165696 34.35061408826658 -13.34204727833446
952 -14.710588800997066 -7.980067725985353 -2.006155542174631
1128 23.232348360314017 -24.96929634776079 4.779676598133786
348 5.99032041541054 -0.5266443318678222 -4.406674107104603
1127 0.1968786003753924 -7.84191296217459 -33.006099014276366
781 1.3160203215964907 -43.643175280122186 13.35240348663724
175 0.4001428835960068 1.806216070293529 0.5067123627721373
782 5.115749777096839 -6.722495904490239 17.385717875979882
260 3.283579058479429 5.73000245294439 3.6867146959364208
951 -28.66031247324866 7.806730155023964 1.9144420463379208
1017 -20.55058708753102 3.2464752139248096 15.91732587339998
597 -8.942278312273668 -33.1740831799717 3.0692652862679735
598 -15.095147992472253 5.040949895101946 -18.723270817183113
83 0.7134470953984502 2.5044495180349333 1.3516536752077066
321 -5.183862800004795 -3.274230164868416 3.644395813946612
1073 -5.71382455489879 15.754619551003545 38.71713555704592
1074 10.594289233529391 18.724358737701134 -28.326147939787216
578 -37.42598653840007 11.925258779732205 30.788078995327687
953 8.654760945605132 -17.301876906561674 -13.339951319034236
261 7.202214061965969 4.583770133767369 -5.017582118591441
577 -4.125272017005651 20.69297148689706 0.08755416773949705
73 -1.0404418321470263 -6.454045165671374 3.474288343693291
635 13.561722212384007 -9.205284221514228 5.723821331134511
954 4.652674804252743 -5.872766925487255 -6.443858864796663
802 -7.019125004518282 -6.157766273324897 35.18768128686219
867 -26.157567575077447 13.348948644089468 -4.027205946348746
1116 -14.04317660747331 8.966331374566055 -16.435969393878693
342 0.3422170302348362 -1.7677849145069593 -7.819644557113368
418 4.968886395060393 5.972897983236578 6.360677317884886
406 2.268693552159684 -4.143048594238491 2.1447233515261765
112 -3.341488782050164 1.3568431270552948 1.8491178293181219
656 -10.983088481646371 -15.882512655036798 4.2111353856729
655 7.431959575194653 -1.9392001730892379 9.708570849548892
1244 -1.485003661857173 -13.97206230695419 7.240576852272499
1115 14.92646062912615 5.751056244781606 13.13941046741378
450 -11.392943838258587 -0.5924739946922107 4.796600412341544
9 -3.573222711279451 0.4454944460596432 1.8356601687497307
1141 -18.808212900603905 -0.25037245940620095 30.053102196924147
995 11.0228202791471 1.8238995930031259 0.5348001592416164
282 -0.46605635058761663 2.399349642623849 1.1893116970438877
996 -11.158940041660058 -13.70154015649747 11.416861236678164
1192 4.895077387294429 -6.109989958016332 -18.456654398675273
380 3.2194077665192293 -1.9925392716444401 0.672026702331974
946 -4.259892170345102 -7.429342520229495 -11.353129660814922
945 -1.0946701738297941 -5.15903471910893 -26.847720297007985
257 -0.4771179800072746 0.07970222210548356 6.245510735511854
1069 12.543358646744032 -28.331882243260242 4.035631941591379
1191 -19.281244525391745 -6.709312270755003 9.277252480845666
591 -1.3933752678902869 -37.886586861090464 0.1432202435004857
592 15.45650939536826 -12.032431597043676 -0.1447723455681536
80 -2.173248284114448 2.3747462455236144 7.65308767115075
1027 -0.8747216937164556 14.173463807578164 8.005888549006189
425 -3.1660803276502056 -9.705066960460261 -1.383967169971755
422 5.9557037919145905 -2.8910133856172084 -0.4294185607725291
1275 13.668039893371393 -7.178967549560448 4.383724764138058
1276 -3.1487077779283075 19.083244491357107 -15.531025878113372
719 20.742830310638 10.626515886723752 -8.838968528944301
144 -0.5528543593593813 5.964358458333609 3.1428134321183503
720 10.717300398608751 -8.585712272663928 3.8794470296600725
349 7.66661337612188 3.8035495420904444 -4.345725839975708
1268 15.233372290585898 -9.70271053109335 12.835535772296371
594 -27.39281498178855 -1.2282177016139721 3.048236349854703
81 -0.563701046631303 -5.597750155332974 1.0921121507319669
296 -1.3066568991367922 -2.286152673619834 1.1507666567513175
1023 -13.36421761568414 -16.142920555802558 15.969645070058679
1024 2.4310113124909316 -8.516094289162625 -20.376600084434465
593 -6.883418382330026 17.489952613012274 11.937923291636446
536 38.59764929710958 8.0442707170247 -4.930662310365429
1243 24.89649331196707 -2.0437470703491436 -4.632496224663666
535 4.3247694215041355 -11.0560110005175 -31.367657327769194
52 3.4532176246791235 3.4929770689252586 -5.19858540135528
340 -1.4450992658148334 0.1407812386926921 -0.02532847402812215
818 -27.20202472622639 -15.316680633703035 -25.726093492738467
817 -9.147370773101388 -5.762458742390783 23.13944859354748
193 -0.22236433647262815 -6.550481960571423 -2.8371694539014216
746 15.667178719517052 18.05871422370319 -11.952726960448295
157 1.3573921017679653 8.476125778166793 -5.759697881854448
745 -23.48386792294161 3.1261066251922456 19.770358464951713
869 6.2665400442225545 17.06738361111602 10.36489243605029
219 -0.5964926180443321 -2.867994840901231 -8.555392783811682
1167 8.86035281477706 -5.457192447391802 -20.2897804924914
368 -0.8311063712521839 -4.757817628627746 2.5212440607626805
1168 1.374997872523223 -17.44308866516207 16.607482337854787
1173 -1.7108833691986012 21.471322804643314 27.38615625069721
371 -4.281523827452172 2.1713332768904285 2.103035133902053
736 -0.485434948077466 11.28566069509855 11.968850165196129
152 2.4285549606887207 -3.3631880092854374 2.3461348929581405
735 15.892344220421098 19.6558025804583 -5.385693900641384
1004 14.479735966146913 0.32306375167602186 24.110614244032224
502 -35.08409350271619 -11.381655284191666 0.03060159467032353
1085 25.02867414548206 6.106779328718508 -0.17899630969261618
1086 6.2300317282929605 20.374818851564342 2.7108609725665627
830 9.098658977318026 -21.83249910627706 3.34445554441383
829 11.029596478172973 -26.773430489958553 -8.158517164276583
199 1.671007406805295 -0.8849624059017657 2.758008800322181
871 29.92445915826305 -18.98123317928412 24.585357718729156
220 5.4183177775295075 6.44636899653611 -3.340648259624492
327 -7.239512383099173 -2.604003108458323 3.1407152136318772
103 -1.3243753861921537 -1.6124363706611817 -0.0546091785802996
638 -19.85978468743111 17.685039594276546 21.888401804021395
637 -14.416703994462534 9.9116025390307 30.93642040167385
1112 -9.10891480746001 -20.919378253487714 -3.523240673046132
1111 -23.99660984085034 -6.166441856789922 -23.322566643930205
1118 16.02140467015553 -18.750245762256537 -13.474336377163658
133 -3.884573589885283 -8.994403322575378 3.381890726355513
670 -19.284946934500134 -1.089467847622554 20.833704983594426
119 -6.172245780479421 -9.804824800408943 2.2296679875627023
107 -2.4095999430762793 3.046204686303718 -2.934561784219126
646 21.830717271414912 -8.317424234214522 23.830858657848378
343 -3.466066525370252 -7.758312300003182 -0.889423913641447
1117 -8.283973725089297 -19.314579943724258 14.58579677392756
645 -10.668981173947687 10.696581525826323 -17.32062499189076
669 7.08612808489888 3.875629046788899 15.22624046833977
563 -17.162573956709476 18.102681134841774 4.833443816080779
66 4.695545717818687 -4.923171365856395 -0.006975974190382069
1034 11.098321207419385 -0.023563385011404987 0.6276598822804044
1136 3.4585418739381257 -5.881590157490104 -6.1145249974689975
1033 -21.406331898153795 -16.71343014337459 -7.777921644715446
301 -1.0697758658797272 -1.3454048131284246 -3.015724939156846
501 14.316766218739955 -0.036175309857611845 -30.01349429502381
35 1.974568735025307 1.1349084466001016 -0.17002925362467594
1003 -8.273709600566086 -18.06891108715499 -21.461500919682546
286 5.457926412904183 2.4830309985663597 -9.245585711678826
819 2.278169185141088 5.602012489765921 -4.850256790025516
194 3.6088355623333324 -5.475722438053749 4.0059437460565075
820 -10.421987278702066 17.540153945984645 -1.5976976961056886
444 22.086718756943643 -11.001215667707186 9.586829738261546
443 -0.7977657625691372 12.602316721623996 -38.16165827271042
6 5.8821633484278895 -5.315388305652268 1.5773446722988373
336 -2.1438441890801743 2.4028587721428587 4.650657936171323
1103 -4.65479745475126 -2.617503241082577 0.7468100672920029
1104 -20.362322628730798 -14.249399949151819 8.917813637089559
903 -8.660952853150887 17.805882806705366 -17.75736969571684
505 13.928321593601366 -24.855324549740793 1.227314102100027
904 -15.731583949470187 3.4971754530963035 -15.02124326158816
329 0.3366597146520766 -0.9566814641216982 -3.849230719953168
805 -0.3345234856239557 -16.608702341392586 11.880015635946023
187 2.109412018531181 -6.842795164022783 -1.1964826349368456
806 15.926563613719882 17.851878947798184 -20.748485276083024
1105 5.341201846937046 -8.312871431328016 -6.140620684457313
34 0.3861541997785195 -1.721675727320518 -1.3032121013526952
747 -6.95575119577993 -8.221150435284732 -4.012475124220415
158 -10.40123065251012 -0.6141603622404247 8.600185789321346
435 1.6771417517219036 36.35749123905903 3.063430071430535
2 -5.8070926029881 5.54987983217708 0.26210046514064367
851 -3.5070400305374414 -8.728108745043745 5.318208970169788
748 -13.5946391571416 1.828902972321167 -5.298037566136946
852 49.46514804780291 20.34085598768228 4.106324460694198
210 4.771763088765713 -0.4375208604069853 -1.028322298903275
1247 -9.911592810055724 1.954191097031166 9.608716741459054
408 -2.4771821545833514 -4.299265902077655 0.03781255175369553
888 21.659159438100808 -5.199564792379607 -2.240143999726168
228 -2.1112645521294597 -4.992262793722851 -5.214852296350711
510 4.266813787625582 16.787682361768137 -22.297765286396597
509 -12.925168064552281 -50.77024936088254 -1.6643350439074673
39 3.188557274817023 -1.0741696705499908 2.214443405385217
1248 -12.150641187035617 -1.4221315633367084 24.61566912936499
844 0.8156406823899048 10.87568574354151 -13.378783244966929
96 -6.6297384684490686 0.007599596837118225 -0.13778160439503612
206 0.3929234950768393 -2.7698509789886927 2.4193062139834107
623 4.70871680472556 14.770382922299788 10.613434272114953
843 15.167310591709343 20.882367705203173 -10.66774041508327
620 46.38080328833412 -26.424528011166924 -17.904963751776585
124 1.5703082647594337 0.8063482497379323 -1.0256249780006261
906 -2.3538739922534346 6.474859269048129 -16.18460246841113
679 26.639019615346115 -1.212699228068683 -38.30484504260841
680 4.301856128828823 0.9458993736428783 25.39424716273958
976 -9.776856138774543 27.543186858154947 14.28573838793939
236 -3.785727215067392 3.79124697915125 0.14761121570956479
975 15.144284341485093 -15.743983150530884 18.42396048649934
272 2.0390180160813896 -2.5326684624794558 -1.0962113744934983
1106 -3.053997679622238 10.959600036578522 31.378278287512654
337 4.473722287308119 -9.047074859400741 1.7799825880855342
1082 -8.303407347168879 19.11346321051008 19.186036586718277
1224 17.99683383743587 -18.23301962351124 -22.033316037780004
1223 -28.78189383770132 24.56603210587275 -7.357924062117045
396 -5.766548828791665 0.5500695507197241 7.856905951252739
961 -2.931233018355589 -9.905139828138235 -16.64257088665746
265 4.054684316045819 3.785885221885325 5.387677841230985
1187 22.93053895049822 -7.205563659139312 -18.73367190330389
1220 -19.198002509575574 15.93549623942871 2.9027417449968738
865 -9.225211191061867 5.694786548752521 5.581358971090503
217 -0.48712840816599107 2.5252138317004493 0.4776163467000563
171 -0.0699871974360076 -0.11567335374558117 6.934869429883138
722 -12.72458949156007 8.89928023381776 45.88664160902961
866 14.027440066477125 -24.24355498178734 -32.40592441556805
773 -11.044217139370156 22.116078710947136 -28.641171079089208
887 -8.248059967431336 -24.773037835713588 -4.925767957828731
841 11.356765188056494 3.7902178725710804 -19.057744979017254
205 0.9036899007662881 5.685704444847164 -0.9413759757142643
774 2.655287237146642 13.758198591724943 -0.6121417354556644
1007 1.6769391514152778 -8.463352461160586 8.913034162365909
1008 -14.759520223531682 -2.0835291538540983 7.878203743802091
288 -6.142826649894157 3.859868378869123 3.9400592806473544
195 -1.6897137629716752 1.5959964053978974 2.2062215911658862
706 1.782745787528441 3.4004026011335164 20.565054438430206
705 23.94416513997878 -0.8364076698874671 9.339884484852345
94 -5.000441242964962 0.6448500500017705 3.2478518146694
249 -4.352496430776713 -1.1309960528516203 0.40838916071502174
930 2.1007710215842508 4.7639789351695505 20.73366037993499
753 21.22421180504599 -14.855786456111664 8.513151458980312
102 0.8078763371781313 -3.2026588279359585 8.285297878771736
754 1.4799767847368843 8.916171487123135 16.902159693969114
161 2.301137046452779 5.917542615542785 -2.2029652173647576
1196 20.73140925044509 -8.526811516986601 -8.575530251442688
382 -2.60068538866766 2.8328868051470253 4.6977187701713445
1195 27.506678280058 -11.29869930053396 -14.357854015728162
1081 -8.715132301694926 7.173876717146943 0.4596101477622813
325 6.395946829808054 1.9039082850205549 -3.0626764999368707
1061 -15.098136309930485 12.493359171402146 23.391733718318623
315 0.6204668275153857 3.2855838052423865 -1.5021485454924695
1062 -21.48089947511647 -13.625948833241392 -21.384948529653116
462 7.379131853640707 -7.173709244056463 9.99879355007578
15 0.5363304548835955 3.1938421150238647 -8.5725570538774
1057 5.657943875570371 -2.0887225961275075 -5.816488419359001
313 1.5980848688670257 2.8240667996934006 -0.7182394006173703
962 -2.1483534400743682 7.1321312743542205 5.7089854778883
461 0.483297608853032 11.129309146146648 0.7042215000161839
1151 -3.682422486587304 22.38173714620105 5.110603667222729
628 -17.96859261293885 5.086627744988274 -22.06300276931598
98 2.9874864439508495 2.8919657619230668 -5.168058727592792
764 5.517129936534064 -15.6120030540253 -7.990613772892674
627 -4.825518633521482 21.861004721540652 -35.06553849162581
166 2.1845720388569125 5.931239580237207 -1.9147810479320324
763 12.990362321553961 9.102020551237882 -17.05444901108583
842 -7.3992453890683185 -2.9175804347754393 3.5875067924237776
137 -7.551587933240613 6.4224291676991685 -4.42830430877821
1070 32.49814977681534 -1.099467506265801 -12.031502086756497
319 0.6704220487440965 4.839053230940834 3.3627505783725566
1031 13.753175020267946 21.584507953908997 5.350613153666018
1094 4.98850050285765 16.79325676535242 16.79133852118285
300 8.55538377901769 0.8675471300247044 -0.44938611334487066
1032 -12.368214209392244 -9.826914295708661 14.503532165168977
475 -12.17607341776484 5.799603157193674 18.06770151028117
331 -1.5786619870370362 1.3236557015423973 2.690805465907753
164 -6.8295453410711096 1.0696141741834346 2.428053189809053
759 21.82564789721072 10.728282258242112 10.821536905507353
22 0.21416738465261412 0.5240377364238202 -4.030423481066506
760 -32.41540096213956 -11.808382460976457 -3.415844051113854
1165 -0.5547431432163258 12.128022838113205 -8.324004128191133
1166 25.145952962061187 -12.450282903567285 -2.76321276637677
367 -2.074867674358235 -0.006096526611496679 -0.4999319632257639
700 12.965562647654004 -9.773138290775252 -3.994912557862554
868 41.35808695140055 -24.06467359420267 -23.28005227750992
218 -3.771187800322737 -1.320021969513774 -0.7242298815686313
518 19.53248953651482 -34.27944459941765 -13.315510091623167
43 0.7642712695337586 2.7905108916192596 2.6234803513359957
517 -11.605048554317642 -4.765572013542932 14.64920946142689
28 -11.386422409778556 1.436143061209089 -3.0390391857384222
355 9.388431667973139 -6.600177011298736 5.691577865236988
1142 35.0129701828167 -2.55256867250064 -16.945899599084203
488 -17.697170055466145 1.027730978434936 -9.461365810506807
449 25.8520926814032 -32.36832119228582 32.289404550892925
487 -3.1903295843756787 -0.31910718446033154 14.499700385247955
1172 15.304682229372007 5.924286707557743 -25.14879813192335
519 -0.25197068322805927 -13.731450898162459 1.035693992343135
1277 -10.863688315748664 -7.660865817933582 10.16729514877578
1278 19.729785837557316 -6.982182430257124 -20.05283606953504
423 -2.049714859437073 -2.8076382734180614 1.2028554176383868
370 8.395350189137845 -7.128255352131415 2.7530396252074403
788 11.921107451299738 30.956309634734122 -9.289715350731155
787 27.010396457962262 37.9300805721094 -22.867287629097106
178 -1.1014991799907219 1.6189705795980214 -2.720541018551269
1028 -20.960508827684382 -18.389289680997866 10.226747494830096
298 1.7480871778134843 3.400213060797779 0.37705802090140345
46 -5.234602975084063 2.4676316589222043 -1.871644904399244
798 -1.5320848199757477 34.788984926161426 0.09641306091271915
183 3.2739885885270166 1.6926080958262149 -2.922626271357413
797 -19.242554238188788 -6.832949001362235 19.984649553000878
994 -11.710115882166823 7.557053958520555 -9.994443879800773
281 1.8383482906539623 1.4590818105994217 -1.3458005793664143
936 19.818767297108955 13.848655667237118 0.7464694580244727
1289 -9.882258576236474 -27.66687047677618 -32.05610683265843
252 1.2210328040650928 -6.5813769521277665 2.99012743504077
935 25.415934485031205 -26.594385779430056 -9.429977525867171
429 0.9567065957708051 4.266034924745619 -7.735866073635048
1201 -12.68607374297337 19.694354905061406 7.10935192650558
1290 -15.122383465431335 -3.6824780235173744 -11.038522733590112
1250 -3.391886872740765 5.098635870636094 15.881614372751876
446 10.813235615070843 -6.184052247371676 21.768042917786204
409 -8.186050129531589 -10.100100253779873 -3.5864749064035775
1249 14.6280156809191 -0.378427248216732 12.71436695321609
1126 -10.837477818139437 5.6196136537660495 -16.751003851192642
347 -6.7346054926774555 -0.9598666956135977 7.912841035027833
1125 -18.68287914390252 11.47240665687784 -32.22987821238953
870 13.213148167198272 -9.5697150873165 -22.30226932572577
139 -1.1889570351436303 3.3981761691068604 -1.7176816821513505
710 -7.587135944545832 16.189966718577022 -10.205658091285864
709 -11.305989413446726 -7.053806295397625 -22.555103237983232
762 -14.04254612355507 -23.165078719070465 -3.863556768334279
1174 10.990550855734604 -6.3451237909118525 -23.877571648800327
1026 10.962156107321178 -18.13263508432495 -8.546806537565473
1135 13.5793292058211 -14.35546238205271 17.228419864971368
226 3.93120426229694 2.4910400892258653 5.501145138812775
884 -27.039270767182053 -19.175700588850702 16.065493884684177
297 5.085445716812946 1.9291525546950579 1.131407040639238
524 6.652853987514584 3.3385893420400627 -11.131786948764672
1025 12.485094613905549 1.090924120130423 -4.757514841048231
525 -8.538031853377056 -2.520416425439738 21.37821496281618
1040 -27.31031365493642 -5.24108841042004 17.78966595505244
47 0.8705060773118833 6.443596466675366 0.814157388027585
1202 12.066984065804254 0.5432345626809051 29.58853974190418
1039 -15.650342499504285 -5.603913230683358 -30.293399790896544
304 0.44312821930104845 -0.7186636662026181 -2.937493647471962
385 -3.044465630654208 -3.1425698382030527 -3.0179275648433115
477 0.5527893791510331 27.949101988939 -21.45372864896934
910 -2.7488588448961315 -12.164204319260286 -5.990000306439605
23 -3.1501344751582456 -6.965078211219057 -5.23012210138297
463 -16.079583771671487 9.975528362006466 12.146625658941282
384 -4.687625306951578 -2.63886599599914 -4.571815005059743
909 -27.910491228438485 -10.14389953745658 -17.129539472249704
239 2.391599725142059 2.2377616943934417 0.5013825729456984
1199 18.179931173987036 13.796517850199685 -14.807734565688733
564 1.8465241337648026 -16.317832541486425 -9.515502354730605
1200 6.370716626971891 9.725869593945607 -3.8111778174498605
515 24.202897400270466 -7.096316165584409 -19.507067570158878
544 -14.241559695552159 -12.068264944275304 -0.11459512557123341
1271 -21.768912454188662 4.152655522035957 -1.353910209739289
420 -6.635318149091778 -2.7910916866500637 -0.5193254918494968
1272 -23.462360948385225 -20.119044820532434 -8.228097216572735
352 1.8994273586037977 -4.293319574749264 -4.550447031613925
56 -8.358595232696395 2.3001267222497455 1.7570288051094034
883 -4.1842767883438 19.336008288761256 -15.383873662430878
678 10.34659050000885 5.9075334147915814 31.885517814435246
668 10.252653710245992 -10.838989808570897 -14.465181482497858
118 0.8499011338578941 -1.8776970009208935 0.17267965984769357
667 -4.600128452349178 -10.392315518408271 -4.93155945971575
37 2.1280083063239386 -1.305418783025668 1.6713164738718906
506 -5.612038455120463 -10.30497632664113 -8.207718460231098
1101 9.388887133787438 -1.9669954788959831 13.506208044766606
1157 -1.1956281292879927 15.040155223047394 -26.56920773198963
1158 2.466861554900659 3.869039512788916 19.25226002581505
363 -5.2080851447527445 -2.513045068677508 -5.356402504744091
1140 -2.759682537132403 3.2020075211685772 -1.2267140768045097
493 1.7377560630235074 -4.765495593006077 -2.6651012165358248
31 0.2948523819369033 1.8875356035045627 -0.8462996622167538
494 -8.938990029356008 -33.07333919006597 8.712303788614063
354 2.5729331904430253 3.95078249089148 0.32499033452023623
1139 -9.06974994782946 11.095228703719634 -5.48290159692056
500 -4.438721513051363 -24.636365414259863 -2.0016035422166
499 10.581079757054214 22.813469592753652 9.929390131583455
229 -0.3482980939723565 3.591692522475485 2.562883062208389
890 6.986320958262887 29.696881838040692 1.7865492943983563
889 -12.431150008301499 -13.921112758809882 -6.618051301933165
16 -4.1545525976441775 -1.9141228182286116 -2.0245097800513765
464 0.579842197862531 -2.1547194800942173 -7.424589005460418
474 -19.60786457223643 21.745012199428647 12.860542533556913
1261 -14.498644849085204 -10.748897460262882 1.803169332230401
1269 0.7711722542076395 -8.603143415738066 -25.24664760193857
473 -29.82440905092584 -0.48682466226897475 0.6226195005399141
21 3.0970726218415483 -1.798777632945681 4.514461650010423
436 -13.778362697394227 -14.473513379499591 -1.4360039806607368
1042 -4.114136709148321 16.055365798656457 -13.284285196950947
305 -3.5130752711261723 5.707423501237042 -4.2938554602780945
1041 -16.657716665288678 14.418744263545097 1.4626344450854718
570 -2.6540264711751136 5.518776774857814 8.221879242218037
905 5.767326258544066 -27.309393623781077 -1.8086366783381145
1092 -8.642583028136846 28.080442027881492 -16.13624987828648
330 -2.2455804294274393 -2.505856036378038 5.29097569433055
893 -0.27466876772854165 15.999898393454357 1.2738838273420507
894 -15.912885757453141 10.04132771989904 -12.125768696948315
231 0.7747420252408177 6.042046462198301 8.781022557609932
912 34.861118476691324 -27.57006619333696 -5.582361938681006
240 2.182171736543119 -5.0455213124924905 -1.590311692918174
966 12.963503852172732 19.77710345574734 -5.149808339749547
965 26.44926708163992 8.33056975142785 9.378980774804726
619 11.229101613104092 -0.5879076587876784 21.703140282989594
694 -0.9010666477466638 4.026961072350363 -11.76718760218217
131 2.2546745240508166 -0.07521779254936713 5.296678161460873
693 -22.200096389896324 -6.584927126586036 -3.354211314637716
874 -4.281120976925815 -3.359452927629049 3.8936724312902298
221 -9.805815533858258 5.544899905050894 1.6055730450895158
207 1.3366357238899158 -0.18976927699430793 -1.8773816746729157
845 -14.13392999717487 7.185061929354706 -26.908132378057132
873 5.927594416922848 -46.450591268709815 -1.0403935211044726
992 45.427776786019194 -32.919495752805446 1.4488416923621201
991 -41.74453224625136 -3.347406403366319 7.250703169320244
280 -1.7777328851851162 1.1356632811650231 8.892696335038943
447 -8.151609938587724 14.17959727831175 -6.241088981677956
8 0.22465233256009748 -0.7006402365092831 2.1652257820005953
1188 16.0950148987053 10.13538173742639 -23.272823387331247
1270 1.4500073249067544 2.0217189182597273 8.202344884830824
378 3.686676225136787 1.1429407182291094 -0.008595226508761704
424 3.7539668037797553 2.6112197400343082 -5.213997623082984
419 3.9680238814453275 1.3757611396712253 -3.036341721401059
1280 -5.942832846306169 6.122506885443821 10.139253131085812
703 -7.901809153599676 -5.914168677514139 -9.10240860017892
633 0.48814121011544603 0.7810619814739794 -2.9431789676630884
101 1.0435227699865042 -2.408242250681751 2.2766123670907246
634 -16.116564844707927 34.00719648211189 -7.824899035778548
772 -64.20338258576666 4.487236038776623 9.246691579961658
170 2.9559656849353195 2.844308129619933 -0.20945570556110576
771 -4.323109633931353 11.431092658476187 17.392445813013968
569 -7.746607796852666 1.6283207254286174 -17.892007180542144
237 0.9122379510902656 0.4395087308189184 -5.26662526344103
1091 10.364133757290203 -19.066392468235417 -9.494390854602612
911 -16.258681934914925 -3.2405897669607917 18.534468928330373
751 2.182023777381737 -5.78606430110041 -15.822647845188726
752 18.63835606198358 2.1219375582674576 -4.748463243218998
160 -6.304178968408972 -1.2392795683144031 -0.8129547580912393
548 5.173696517423899 19.4277312313242 -1.7350506402548316
58 6.287144503160673 -3.7458563129585185 0.6688815224680135
1001 41.08526485821031 7.740913000944096 -1.9448143120328822
285 -4.658898822315197 -4.110719879921389 -2.886006914783441
1002 19.19239948633408 12.191356780332596 31.684798030401474
636 -13.796457414343577 10.430524814983627 16.183203418047164
609 -8.9317716173188 -4.231308572805822 -8.58824572094988
846 -10.807838436078441 17.847891896795986 24.990235671213295
134 -3.17839030163576 -0.812077411812902 6.305369358676682
448 23.650652021850874 -17.7621462433132 -9.435002937883509
508 -32.32696928470477 4.670457624074704 -17.01941034010073
38 5.363595787977581 -3.932625056670517 -3.531779063228462
1058 -6.771995181116581 -1.8218971549692573 21.084985030305738
507 3.9965224505280705 7.476015017554838 1.7475896662282306
704 21.02515630130268 2.9076292217661015 -24.3412389201303
136 -3.9266854285017896 2.9702950393237235 -1.4233474378694815
292 2.9724419853014323 2.2896711350264214 -2.3291025070676694
1016 12.387192861928105 22.778454260425228 5.022755053865884
1015 -10.04455855581401 19.354057575011275 1.485798120725522
824 -8.168194201758977 27.155469943166658 -5.31113149399566
196 -5.259160333595791 -0.4355533914909179 2.6109312465404106
823 4.445826469286033 3.816234068634256 -32.34846487498781
756 1.8222444307277288 16.877232540819165 -23.39838436529467
365 0.37069934395618415 -0.16883288571082794 4.6378315876866765
362 -1.9350371821323775 0.46995132825290276 -3.777619180283688
1156 3.2038381020357285 -11.08940921091681 -2.5809663278096644
1161 4.7543473284402165 -11.715638572463416 8.00253994539044
1162 21.995722922932227 10.518827719796544 -11.357150418847906
44 -1.6055818698266047 -1.8799098604539088 8.903897534830065
1093 15.075652273624979 17.988996276655847 0.25931518684443944
863 0.14720669825031601 12.338090302820433 23.9735696201276
974 -2.7770339887157847 5.977543851170008 34.525174072443725
216 1.0345111436604175 1.9419763306543627 -0.19333315797023737
864 16.65682333728552 -6.003627785778707 -28.493201701081034
476 -4.222531825398062 -16.37372961275545 16.40193984519837
647 6.148091100876187 18.428884144454994 11.603209599149702
108 -4.26229846626763 2.9472354900861535 3.183838061885211
648 -12.09090659889255 -12.337302917932426 10.340902195734696
692 24.32129176878814 -4.132484740993139 -10.839740682965354
812 10.809574277380502 -8.894041097442358 13.390860413518412
811 -17.948546024034865 -18.321474704931042 -15.08851817051009
190 4.147612447059529 0.38475747049279685 -0.9643935268786403
130 -2.0605420186902434 0.3378732075689649 3.1559351445766253
691 -4.8474605033136875 -8.873729932901623 -9.869581118308252
486 -0.8114581550411135 -3.5503666299911902 4.579583065520101
27 -2.6706160068817524 0.8575924455491486 -1.3147644123403284
803 1.059248542171489 8.094744647597945 13.612827998474003
1181 4.723404448786298 26.91120433095745 7.290838155507954
162 3.242043695032297 -12.141655914427956 4.623585206306312
582 16.686998686697827 0.7306462481004383 16.985093087355963
755 8.246717687225162 0.29744844201217224 -30.67804383675667
271 5.43747018969188 -1.8935102876357688 0.3159946844920661
520 1.6033797689670406 -10.332811556264701 -22.019114622882068
1171 -19.337926595861205 -8.593643814851113 -0.05240181454761198
973 -2.0554536742078833 6.504482416746873 11.64831375062381
238 -1.6319240025899862 3.646066317908913 2.538492700561405
907 -15.483824400383543 -10.793838475922458 18.857669679973238
908 3.9384560124935963 1.0322405662506373 -5.128215646299884
523 -6.100739905300545 -1.6897613794230324 -5.9112759748110175
681 32.168299317703266 -7.90650168048626 -15.55534021920246
125 -0.3515031722004322 7.060392993341717 -3.2026069636824808
682 -1.2348440088349077 31.595318228379767 16.08691997967295
993 7.066859842661304 6.411808776561012 -3.7026384791995715
915 -17.490600053805217 -3.9867690901890778 10.586333365818671
242 0.09044445535297443 3.284074188971048 -8.998478443507798
916 25.08061647740706 -30.262414319024067 -19.672566842097197
64 -0.1971283537603189 2.066284097462896 8.601681023333123
559 -24.63334969881399 -12.657800918058259 -7.385937841175812
809 -15.1652493786011 14.801464951551228 19.618804553665772
560 -28.329665415603372 -2.1159072250932587 15.19121770319156
189 -0.37496065157599145 2.0319420274844453 -2.6587265920349754
1190 -5.513376508129912 -11.490222105177644 -1.6395887224495862
379 2.8772685920299645 3.321661496806793 -2.46015384426908
1189 38.68858401776857 -20.907474583369265 -18.27510649834195
7 -0.9442004874092271 2.90271725539136 -8.338182737043665
445 21.373529515546867 -12.313688506013323 5.223590911827753
804 -34.436385198087436 1.5635433938253338 28.533340679748374
186 2.5714813143638726 0.7407571282164359 0.3277032036708919
1217 -7.830047609773649 -10.00012685978153 15.101990164695376
393 -1.3387296569441651 3.4328451202088814 -6.989601100239362
1044 27.05240490307587 -8.485809239258243 13.263186926337196
902 10.174444326249835 -0.3177394116746508 9.29105992896516
1218 7.030984271300481 -3.975124013015788 10.040184088578634
1292 10.135932541808705 -23.303301894090268 12.105082166913952
1291 -30.990232181622936 19.97678557333189 -5.039971015465411
163 2.6903779859719092 -3.0266377171177097 9.624422642004742
430 -6.100773162892717 -2.0085789777498237 -5.765011464696998
901 -6.096705310689775 -17.699475225157528 -3.4312132050637456
757 5.405421012390907 -14.007016124032724 -10.200564242734668
235 -0.04677499892103851 -3.179759503318265 5.38375614285327
556 13.290814159172532 15.655583952287957 15.082734565775931
758 -36.27581145355287 5.959866908061845 25.42703073208012
165 -9.51842990326399 -1.8971513647792637 -7.220843303827512
1215 16.486218696231003 -14.0889997005319 -9.43643395874063
1216 -22.272411597904615 -9.684150868481993 -3.336040521065466
392 -4.021452656632796 -4.626651268362936 1.368578950152599
761 -22.987762697101395 -15.928670685654014 -28.872140096316997
858 3.019348591528309 6.279021202550638 -17.81659631385226
898 -9.053278090301301 -5.497453536478703 15.061472119478868
652 -4.233639006551332 15.064586255831815 18.588567569438997
651 -17.15634476511718 28.64375449234432 -2.5031921260199206
110 -0.7010432959200572 -1.7480728362871292 -4.927328806959455
233 0.07564778307363432 -2.9208770214109983 4.040639751154853
526 -12.355564775500213 1.7656193898612111 -3.9369981272520103
657 -13.116165328743094 15.614341025482393 -6.760463017733107
113 -0.1987956508423201 0.37807236305223235 4.6747288175537625
658 7.246727989434239 -1.9572484819961677 -6.8581785214176145
810 -25.429398933072672 -18.892377588548246 -1.430246125753254
182 -0.66383788199772 -2.719023307329188 -0.9113091789559531
795 -9.74109970642996 6.549196183512175 -19.777074567589388
796 17.28203476887589 15.341468273488141 -40.434556693654066
478 -3.7567222678971706 23.801097939836847 -18.02057591277146
120 1.0223288607641348 -0.6108694260768186 3.784232745838482
671 21.251435699053275 -7.488669585138227 13.474407571605063
1256 -3.7191034643408263 -39.38105247981007 -27.719361031697872
306 -3.9766688451651713 3.225166794672977 4.090072148063871
1148 6.3931524462972735 24.008440758166564 2.7556221582892966
1043 -6.326207277408285 8.161358782595126 -8.686746807969786
456 21.43732291723986 7.189361629986654 -5.505860368505817
358 1.633950319074839 -2.1539407577402585 -2.863002858496686
1147 -18.062505091391245 26.34747704880369 -10.400604509727286
455 12.238403352805337 7.269507650187872 14.538323423647885
12 0.9339983688309323 -1.972330784249862 -4.048384964140552
42 -6.300744367930801 0.45654038986742557 -2.7078233510718546
516 -17.635533907647243 6.837137408010882 17.485671192144604
1206 -18.455329482559335 -22.880768207101365 -3.360948716065363
896 -5.629170561317368 -13.217364664672033 -1.5773169815901582
232 6.149681708693902 3.29158783689677 -5.048973840232537
387 -1.848896285399646 2.378372986576648 6.2317635128641085
1205 -10.041616894524731 -32.19244425475358 13.452802655947186
562 13.037142903785098 17.128956764904252 36.19819010089849
561 -13.018932840110025 -24.035369463474463 -0.09888952430798319
543 -12.217358284569189 34.13176876022918 36.319445909797956
65 -3.6634407176432155 0.24609194981988458 1.5425386773698426
984 -18.08581338185507 -8.35768846108224 5.123277867610553
276 2.8396056624995794 4.019559041721053 7.514933673323032
897 -4.50821864238258 -3.8114950498441225 11.00105998848535
123 1.3263988394001962 4.685743539405647 6.376724487354033
677 0.8945669474304513 2.459420654978027 -22.9657848596071
154 4.968837038460441 -0.6025920254669647 -1.331174202234004
227 0.7728932924722623 -4.05181893795733 3.2345080240309207
885 2.3492784392663504 15.415548037191803 -6.085405778642652
1238 22.6411258338704 -3.4476475018562955 38.47192744848608
1102 6.0764594731306705 6.334847144991003 -10.496003614833034
335 4.429338146101422 1.3078416987486874 -1.864157324465059
1237 -1.0093326930771764 -2.729158262149815 -11.61644590621543
403 1.8098850000306608 -4.506388801374242 1.5736314324577825
715 -25.361285101058208 -4.472337294289248 22.70578841209327
672 6.900146756369397 -9.113674914214819 -11.180515198239966
159 3.1624652525788806 -4.6343091395879 -6.428705022351899
750 -22.300854318245722 -24.14117695375094 2.3844494279350306
749 1.4935372992667386 24.412001966516005 -2.1777726992219266
117 -0.5929018321540366 0.3777437134930319 -3.700697384196985
1262 12.40992464839118 14.895410039714266 -6.979186774810432
415 0.24274811724970233 -2.5439037364983714 0.5975632662077834
53 -5.894074675283538 -0.8070933981701737 -1.323811888139713
537 1.2870921032700942 0.1379089498875693 -1.2938886155154943
538 -10.374972547835245 14.799394946216822 11.675147119569859
895 12.643379349969715 11.28520988233735 -9.650512401326994
1049 6.284011404461494 5.111116912338568 9.192601271930528
925 -30.37727287952384 26.148856562422957 10.854643392839682
247 2.3747419080525485 -2.999286908671445 -3.0261618164024564
926 -21.850322671908796 0.7269230347485599 24.732643307302773
603 4.0070803134318576 13.702135449436984 7.976037037916187
512 7.798827194211668 -4.4135100660730355 13.155893023425062
739 16.9672874257292 4.854829329830141 1.6984768939240475
40 -2.888786458847821 -4.580057888901052 -2.9150567327563155
957 -17.151310493345132 -17.570765543040174 -18.212524539620386
263 -7.474873408412832 2.7594698276855882 -2.9132161161465806
511 -10.13773379247364 5.421564433136619 8.434440909684678
983 2.329021356344649 -16.69732653813219 -17.848897482392303
267 5.613530146435202 -3.323031090676787 0.27814256876263127
1145 8.353375975593401 13.663777464546284 -21.967810124979497
357 -4.891808743799887 -1.1103375774053639 2.33234757330885
1146 24.19009814649129 13.88366277278688 -9.095785132492992
1274 21.721333740352662 11.405151419973311 2.4475583923337703
442 10.664541640427753 -9.944833233067225 -8.391590291983688
5 5.030988746212997 -0.5095741536507341 -5.155979962193554
441 -5.817933294025795 -2.641857642354464 -18.304617201834812
610 10.104437303814883 -5.833564133578922 23.66947451729222
89 3.7013376294755793 2.4727936792956937 9.35819743520411
716 -4.874918809488946 -29.80258418355264 -12.843112399657052
142 -2.0316851742256103 3.691733848859422 7.27897514735943
469 2.336271715343412 -3.5688261676454642 -6.810473167060368
19 0.5395968209037749 -5.798175172760895 -5.286643163053925
470 5.463936712177924 -8.578243887401088 -4.973237090945925
701 -3.766625744889737 -26.364798014779204 6.12165141465413
1279 4.989386586386533 1.1543349524508242 -4.749940123847226
135 -4.524083999030921 2.3844575025411063 0.7356100405938744
1154 18.985879930401907 -9.141307609494863 -25.708659884098935
702 14.328369187452772 -6.38422398908691 -3.3601516235140774
69 -2.709034390998687 -0.49675469858393195 -5.753029356805307
361 0.5524866844276762 -1.103604855675206 -2.1235982478228403
1153 17.62858510108608 14.096514157614076 -18.952373953727008
1022 12.729650806802889 -9.85176808454111 12.563516513563343
295 4.700202993806203 0.8130640260914677 -0.5991584089040215
1021 -32.169077608784626 12.53036186997063 -23.76807151869327
140 1.0962217012181565 2.453268351851475 -4.132660677819291
712 6.648717030070504 -13.016913885139816 0.6263638155732494
711 10.745699533831738 -13.175170081761866 13.467969621683894
958 11.93762607012336 -13.498358125113853 6.706102396396998
622 -21.563394202230622 -17.048042540842737 -17.714536358520558
522 -3.6521598316576407 0.4215334915730275 35.199079539064094
521 -30.468482690704352 -19.334946662497906 -13.774205638712287
45 0.3594288556125764 0.8768656499469737 2.3051072344763948
177 -5.419783696653652 -2.6319736591362695 -0.8703296390527989
785 -10.1068428592884 29.285814957490143 -2.461086911805894
1242 -25.705092170801073 -3.03594985846987 17.505537088417412
1263 7.007224922488926 44.83555855911897 -18.489516929436302
1286 -8.812143376313644 -5.420204990335408 -1.1059036078401054
547 -3.8492001239550167 -7.3572028659168405 20.822868583888045
1285 -12.661648004252022 2.347540345281589 4.779955007470836
427 -2.0405857503992864 -0.8101384448874688 1.3193317198506607
421 -4.920020637501074 5.6794587365979545 0.8467997545003397
833 13.824173022521684 4.221419707738184 -7.279424325893142
201 -3.620184664541686 -3.2826512725864347 -5.147638860135828
834 -13.886449845061255 7.801997877982674 -7.452826274682664
731 -5.486391167059236 -13.789770666247527 -28.125105068825313
990 -12.440197261740146 22.054686322883672 3.3196432092653496
279 1.5453762256907593 -3.3679084702557396 0.14081139264336096
989 -10.044513305272716 -8.621205305625612 -8.585282328286823
391 -1.5591529164830016 1.9696227295343232 -0.12546939971784238
699 4.542186665501199 5.18741273118914 16.60696621301822
611 5.539963032626817 9.55454943892668 -14.709087312876306
90 5.555399177509756 0.24109022836442798 1.3201839105829174
1214 -27.815045143756397 -28.130479477945716 -9.88507373484172
485 -4.366551592993902 8.183177655614692 1.9575532732953103
1213 -12.341814789296924 -5.276713571711416 -1.9536605800787978
877 -7.3868790580247525 14.767655158394867 0.22238613527194265
878 9.316732875109716 19.184716383838584 -10.25492501424399
223 -3.391045240725251 -3.370083333067499 -0.11589553856239744
831 -23.187839493679427 7.596909472843308 -0.578240973077606
200 5.855117347366728 0.016184323538142392 2.7998171598603117
832 25.215411126706755 9.610708397362352 14.275055986823332
514 -14.66741008633672 -4.913634143454298 24.583329390520955
41 6.862602065350653 5.8095218655523 0.5815559941024608
122 1.257100188005186 3.8475639750094692 2.1429811046244316
676 -22.640285967263313 -7.38142237627899 -24.538147419766005
75 1.3870937847803064 4.795808308564934 1.8753369568529352
675 -7.23226065905034 -25.90306777149591 17.102380537963878
581 16.578652030375807 25.341110802348926 15.89029675412185
1075 15.322643701109616 7.935514050239143 -22.400972173835374
530 -27.307093998765776 -13.899610139812513 3.062265365579146
49 8.453182694813492 5.339463276288714 -6.397359917561345
1155 15.0164718012688 -2.3755616010417753 6.7706595762816955
529 -5.429738451428737 10.52525904770036 13.120590303619274
786 0.43104591451241675 -14.566325458131807 0.9442879912328408
322 5.290556843698261 -3.1446651826268273 -3.5845266479613693
1076 0.7268765594422647 2.837584665548467 -1.7707279615603262
351 -0.45184177273908305 -8.406455580405028 3.9821355015891657
734 0.03666858943676872 -4.764140273874568 -22.765192241636484
1134 2.4214415986088857 18.77979493891072 -17.276502651947542
1133 5.527545869915229 -8.286617385786753 28.929691646782683
273 6.70615813242435 1.533296552288738 2.5671178243601407
977 37.40251452670169 -13.171665339646866 12.341079869341105
1211 -8.565243137771942 -11.65943266844844 -12.702513779050435
972 13.214215045811743 -4.880760841803533 -30.19259774566473
270 2.8227728534758447 1.4724377880577726 0.9114733434424763
971 -25.91457838123371 -27.93286640074129 11.293046040711813
246 3.093120098855786 3.5307214516944856 -1.2974068218570336
924 2.9721368188912582 14.142958941070495 -18.403077833796374
1193 -0.7265036582238896 -2.54191427657256 -22.19312190834887
738 13.088410212320374 10.007151624061237 -10.699494102397287
737 35.244344534040934 -4.677592037181918 -25.840430809323415
153 0.827635600586263 4.6171792170032395 -2.9997701491924658
923 -16.91009318331806 -20.331278533814682 5.860005486839883
1182 6.153643477529813 4.58138999999255 7.26311907997781
375 0.27871241411321374 -0.9097933469231307 0.07579822721946004
1095 -16.414953075978477 -4.538910678761255 -5.038890711302692
332 1.397291302087835 -7.146462215368664 2.6130788527822295
1107 -21.083110062234418 11.431411380000593 1.898944550081793
1096 37.89437162957564 1.8608710712671597 6.567354343890548
913 -13.725623475146142 25.134611047323038 16.674898657479602
1108 -22.066314976484936 -2.662181887561297 -19.920408309208014
338 -6.8376695332352595 2.342967158702987 4.9207265929632005
397 1.096477464330406 -0.12903835716383888 3.4178404437952192
1226 -3.3697745547659523 -17.944484250576743 2.2456712308821993
105 7.069440633195554 -6.508866997007459 -0.8935365007163675
850 -3.180164525200653 31.768009358889586 12.729012483985027
209 0.8199977647232265 -4.198665093389267 2.285657111054672
641 10.25987662975077 2.9100258840157345 -21.593510154852794
503 1.1200642866623014 12.589220978557893 16.07881870587337
1121 22.74723882549331 -1.48161544262294 11.284798758031464
151 -5.337395355456303 6.369584702917461 -1.4562596793525406
733 -32.24922749457618 -14.060134068234264 -11.635988198792752
345 1.9588544717560161 -0.798178689452559 -2.807549622327224
1122 6.560745465861383 8.887685173713841 3.619116482289388
212 -1.1162579382155475 -5.303795256988419 2.7424463511172728
855 -3.990819486728357 -18.255097295307458 10.636365078076338
539 -8.832930589784025 11.517306672524334 8.342196632178311
856 4.914530561778015 18.66592281950511 -29.869125601907708
54 7.316021224651081 0.4220766067760175 -0.999538827803383
540 17.10894786879586 -5.472381598815967 -7.799144590863852
1150 -15.285319318456196 -4.723529823920718 -48.790688772698736
359 1.0242679251213194 3.095982569811749 -3.9149283794653305
1149 -6.398394969723089 -12.632935649785134 -3.339554032183098
77 -3.21918491201953 -7.16731775281358 6.898212214813572
1159 45.21134182853234 5.742524110830802 7.807710725727156
299 0.20093534649385705 -2.0565389914477636 -1.628511820136969
1029 11.292952566010877 1.7173429731995618 -4.50922515590172
1030 22.237051847319094 -4.954147339821488 -11.71204826675237
489 -19.547605488602404 1.5687395228660062 -8.025722249284184
642 -3.037898622257709 8.78555266715977 18.38994916708737
29 -2.299324976815044 -1.071935863031556 -2.7378289184759077
62 -2.497458685945511 -5.218107735476562 1.06412531165594
555 5.4634886129336255 26.2774369857665 -29.21023790130241
573 33.686973866472705 10.07580817005325 -38.76619498839106
490 3.926319044566854 24.374242503495992 -27.04225799842543
880 30.965441547843298 3.6881167400555324 -2.835015700231829
918 23.9769567982062 10.636972018040213 0.9184176568666036
243 -7.8208784322960545 2.410411777017947 -4.072466969784793
917 1.4877057787777546 13.790113013949485 4.420436520175056
191 -0.4386614699877562 -0.4460705822390962 1.8527974849985478
814 27.74381691923167 -16.23605925191595 0.25279386492384975
813 -9.613028320012925 -7.578220694243613 17.24843422506853
836 16.26020967486283 0.0790728073583873 -9.503559692354333
202 1.8450639834257059 0.4111857064638313 -8.180210169037236
213 -2.966459430773033 9.235882959468801 -7.342305482666969
857 -7.545303251747638 8.239898568162271 2.7824932552479296
835 -20.17726068072189 -1.480752542125287 14.308073200593384
264 -1.8018751522481404 -2.874763104254132 -2.1608573946700056
552 -13.291205419604884 -19.154687654687432 0.9608422958847184
60 1.899347605351431 0.9121466736647812 6.373697848278931
714 -0.7767099969710533 -3.976942371036466 -9.414133508178647
718 -9.352672431414048 -12.525120158715334 0.3674093301449777
143 -2.3889868438988677 -6.930191226773629 -2.266337076458573
141 -5.44800284484853 -8.176740760110537 -4.143940441299745
713 20.425905870718765 7.821037725704704 18.313784236340233
717 5.977807751366198 10.107952520983888 11.406344250455092
950 15.21522264311874 22.121820833404787 -14.577480416701706
259 -1.429474341931318 -1.3333401642876934 8.264438905430143
412 7.196650614695543 -2.498187429556676 1.7586889801956889
328 -2.5099894789912773 -0.08793276610386609 8.512949821021799
1088 0.5565340266020826 -20.333000448918103 3.51878361469543
1087 -24.603757006481732 -1.8643479304726378 -18.501035603243594
303 9.970912977348569 -3.2038962434724025 4.50198624558834
1207 -21.223484574365784 -7.822386607368483 -3.870875258136285
1255 0.5326232283570544 4.335848730623184 4.379640116902723
1037 6.966362525194111 -7.644781364996771 35.23646572737805
949 -20.34642582185055 -3.6121819042360537 7.091618354435706
1160 15.57394324849813 25.26638408137542 12.779488454007614
838 -6.58556644920063 -21.81589948554046 -33.389723778952835
203 5.526557513243854 -11.73960484640568 0.7831053174667328
837 8.539372596306265 2.3360408286500496 -5.705147717617177
689 7.931681148704434 -0.8242392957615834 6.15434531771468
690 -0.24574206312035465 7.151426660986066 -9.331032556474852
129 5.333243475223591 -2.366323292974703 -2.519277091685357
211 -5.504217325432767 -2.5901004070840212 -2.5903353647031797
854 -24.32805894601238 8.363917413674459 -11.829057383326898
959 5.753586694325512 -19.547127710618497 -20.241642930470714
853 13.250952353218242 18.917395263201232 -1.8887531270498075
960 -6.718107563030162 -2.6643802676642316 25.20022058710929
156 6.414100620340948 4.641195720122531 2.579083697713879
740 -2.016595456464709 -25.743884014007378 18.5617464931342
861 16.842091971476453 -16.174129402530117 -4.173219785452755
572 -4.138742988272258 -7.116089683541306 4.4596843113210065
571 -4.876861465564283 7.332003948850321 -14.488302834945655
70 0.31479858076343015 1.1322035596660902 -0.3540458710562008
1055 16.609502453172016 22.513195379542985 11.002810076631834
886 -6.723549671715062 -18.331327784358596 12.128574105779531
1056 43.29496489115728 -15.293595918136576 46.53772743849985
312 -7.173129456520294 1.4175315341714556 -4.122698105034174
662 17.49442015954277 -27.224600882165603 9.610934107943804
666 2.864731913330573 8.790484853658253 -10.241498645272557
484 -13.580930661022375 33.24078896507241 -3.658808269778159
665 0.527139161449511 3.690957673761096 -16.26732083575637
661 -20.423122131974573 28.398642592260913 7.115329711226851
483 1.9972830153833654 28.890603475587273 -9.141755809438283
26 -4.22782612726741 0.22763909825111664 -3.6205629874445635
115 3.9595967751390244 0.17284971839415425 3.984383262043508
309 -5.134103239942185 -0.12252425111918107 -3.248305833623281
86 -5.919542824937487 3.7494038930540934 3.3212811251578596
604 5.075396641758203 -4.351450313095246 -8.409234018482016
558 36.205316812440486 -24.117320384847414 -5.586860141319829
557 10.66847284243315 6.76222851456581 9.09580960445818
63 -0.6133133317898618 -3.5825039071790155 -0.1095442147211111
921 26.97668372663013 15.475441788345421 -4.52336888960761
245 0.7717531153740794 8.40545706270523 6.357656891655847
922 17.043486756149566 -15.088539431709007 -33.6185989947333
789 7.725573913027773 -32.60070278562132 -2.769805875495287
215 -0.6569005411733412 -2.579648082912347 -2.6525687549727843
862 -11.955190783261186 -12.585120185522399 -21.192856231748415
197 4.197109963475683 -3.291379128371111 -4.488378954951689
579 10.871819364377535 22.74078019273702 -9.606217737455415
790 20.947441934707626 -11.581346110638197 -10.005257641595243
179 -5.111693183376607 -4.466463749353946 2.164741405688761
825 -8.654624113156347 4.773609022008152 18.941627621873785
230 1.8251422355182318 4.564424159024616 -2.2831077654415988
1273 -20.476893137883074 -7.9095806067544965 28.24937105307526
74 -5.399014806327667 3.1008678411860413 -1.6685243256279523
892 -8.116632595237675 2.1947578891954618 -9.756609905320861
695 -9.096021507321941 -4.794105049688058 6.265482852764327
696 5.877375004509978 -15.671730819324763 -4.011272795316549
132 -3.0630711257905983 -0.7635962211896433 -0.8636260261223921
491 -12.114458698309134 14.492388212610628 31.8029733796203
768 0.7156730183420186 11.168749411328038 37.48141131398846
168 6.163277897661621 1.8121154753565905 -7.876914884271148
767 19.4013681505543 -24.307554890166486 19.449120336225995
353 8.150288113664887 3.075407717711259 0.25820741043357415
1138 12.330302192471105 -7.6582457337686725 -2.4589337266046
1137 -0.05589326139291577 9.567986205285283 0.6203214700793487
587 -3.6937923466739555 2.4681109802587913 2.1848124800947555
78 -3.108666438737973 4.027969514156063 -7.022257514847714
588 3.6778719348217743 -19.718647871037007 -23.657221385441442
1035 2.3718324536664737 -8.437158724941742 4.1774712791478645
302 0.6558650379089528 -3.3669253795861964 0.22698146212920156
1036 18.046847377290845 -1.7697320746147784 19.853534354399216
1180 -1.254158095052171 10.692758886005548 -3.6931364846193406
479 -20.015278331204094 21.556164225818385 6.595524727672557
480 -12.0963665447268 0.18401256432803248 -8.250239811884258
1050 9.55812717816635 -5.712875797650338 -0.643219273117995
24 4.242896841276073 -5.104296360072601 1.9256039695783798
1236 8.731550338245933 17.390362910590984 3.3157135456474585
1144 32.98765631392739 -4.554904762018089 3.582483691504456
599 -1.0856987954517732 51.736193616653445 14.412589390810494
84 3.38702611421527 1.4654579287697866 1.429767359528808
600 -24.008675091660564 -17.558224768162326 -6.451307878198603
891 -2.1183060798109277 14.62615437200051 18.418728837381128
621 8.584190006989957 -28.146251613970957 18.87647333256701
95 4.636213905171982 -1.4799626590803607 5.2801884099456595
405 3.9441769269026143 -5.9752397369782555 0.9516190159998318
1241 -12.860885879051136 11.649284488838395 14.863392110152512
580 3.1354201370617956 -3.386923910106185 -9.093968625661333
937 -19.997051267358426 -8.518531889332706 -1.5678296231762119
938 -10.144471050466178 -2.992745691449884 19.194000356899135
253 0.9072506331693373 -0.9087371908074644 -3.243500735700245
416 3.95104032111276 0.6395221911231972 -3.5008641361864115
1264 -15.547117712909795 -11.102646915765698 -2.8713241449893543
978 2.8698641697593144 7.974480620662144 8.643330386786554
576 14.205548902121224 -14.373483784231263 -13.436380967778037
575 0.7280492126828962 6.384512874638649 12.984688069829351
72 -3.966829982967657 0.5627397659726899 2.2920021078307085
150 -2.9319911090016064 -3.763103323661197 -0.9162453525194351
732 1.093237819726459 -8.598899469293022 0.7230687978406849
1194 -10.84190387882969 22.268491954740533 -13.692348321422779
612 12.135532051383912 20.064474822939818 -6.185377105303668
381 11.253328659970048 -2.462028335497207 -4.124200069458516
82 -2.2004207111523875 -0.8143874470759954 2.4427826387870266
596 5.690046854876942 -14.075901255370223 4.873173460655906
595 -14.001472703079441 12.382915738470178 -12.752756695937256
513 7.992970897854862 2.8521522173254317 -31.89070641032716
860 47.88403649746806 -15.685267031989394 -5.985637024557849
402 0.11659086244303897 5.954975951253775 -8.130396714620593
1235 -10.559141169214906 5.633554806758957 -15.541532195274984
241 1.1146706062948093 -3.5602720947218467 0.3839737499492865
914 -15.909433002764667 0.24422187093779266 -21.716134892637655
114 6.880891919569462 -11.027590477555322 0.5848590737834374
660 7.909994371142106 9.016540541895491 -20.430718965105726
659 -6.234746078642659 16.287159121874296 0.24952398714358168
1225 1.6061642108372371 -7.863153789278247 -2.7200838995573697
793 -1.6342490699900536 -6.422336596594665 6.849274519220895
181 -3.2628730081154496 -4.084699803418562 4.037591955958224
794 11.57261310980963 16.589677962405183 8.05979682212583
504 10.355874081422607 -7.01356512738531 11.490395470263625
334 1.7562247431430698 -2.007242428335578 1.8720125788465674
1100 -24.694524485638844 8.670849097420957 -8.448373005895622
1099 11.831280523927548 17.54658435743371 -5.087827818926676
36 4.204868679447662 -1.6802708971031586 -0.3696646857135334
