LAMMPS data file via write_data, version 29 Aug 2024, timestep = 300000, units = metal

128 atoms
1 atom types

0.029254184369863268 15.190745815629745 xlo xhi
0.029254184369863268 15.190745815629745 ylo yhi
0.029254184369863268 15.190745815629745 zlo zhi
0 0 0 xy xz yz

Masses

1 118.71

Atoms # atomic

80 1 2.849948594391625 2.7751373144632008 0.8992614226994524 -1 2 1
53 1 6.1365590166097945 2.158086692632852 4.5516439521397185 5 0 2
78 1 0.8234081461559072 1.1607276022553787 3.376798622926076 2 3 0
61 1 15.140387069680616 3.218687011993478 1.1368819162687087 -3 -1 -3
58 1 4.732156448131416 0.9799238027947514 1.7051833555726001 2 3 -1
100 1 6.620256737964228 3.4925374092236865 1.9470473323631587 2 1 2
105 1 8.251756987762983 15.114560195910409 1.2611526387600085 -4 -4 1
102 1 5.312422151374196 4.937679305698249 14.764368961583536 3 3 -2
24 1 6.140554718831459 14.619260061508689 3.951437469085852 -4 -4 0
122 1 8.101346430034063 0.42261051974364255 13.610912698260847 3 3 1
25 1 9.524895159654127 2.7301820939012043 0.19684711187299378 -2 0 -1
82 1 13.823793883830833 5.75878356251373 2.171448029730807 -2 -3 -1
37 1 15.052269485559773 2.665276322541571 13.025874873785673 2 -4 -1
11 1 13.406075737711733 3.674922405664995 5.291096300572214 0 -3 0
112 1 12.233421185543776 4.774369341575314 14.920091035095876 2 0 -2
113 1 11.135088913659759 1.6390632281761355 2.90793457822875 -1 2 -1
35 1 15.129828533973141 7.81990993154271 3.877055741995594 1 3 -3
116 1 2.0445511355839887 5.831746718282418 0.6753354138665255 1 4 -2
93 1 3.873255807365289 4.119112337187989 3.29264132361877 0 0 4
10 1 2.594859767014249 8.020530360057577 2.7826874254056753 2 -2 2
75 1 4.631395970563213 9.863167141393143 1.1623680115660633 0 2 -1
56 1 5.528110801234891 7.253959300234745 1.9795294483567554 0 0 -1
28 1 6.498332719895757 8.866189949523854 4.271654257752163 2 2 3
20 1 11.29435081142563 4.672934427404138 3.264295407619201 -2 -1 4
91 1 9.424771889511563 5.791728082256279 0.4573932111492598 -1 3 -2
65 1 9.561446391668003 8.368350481455192 3.6642923072470523 -3 -4 -2
16 1 6.349873327829442 8.808495558392055 13.789627421267443 -3 0 4
23 1 8.111894642482003 8.967378308019574 1.02999753432397 1 1 -1
60 1 11.472145597975464 11.129500760257145 0.9767621897482935 -2 1 2
13 1 12.120347151194622 10.777267305474004 3.9502506821739565 -2 0 -1
70 1 3.0343409238406527 12.956226973166626 5.902424706167578 -1 0 2
22 1 3.65734880878203 8.596735332905016 5.785954909290142 -1 -2 1
39 1 5.639112211707837 11.60660505357658 4.192344511052588 0 -1 0
104 1 3.1521832258583933 14.973980723104303 3.6132742974993985 3 -3 -4
74 1 2.104353642796543 10.951404980543384 3.6728369568202357 4 -1 -1
5 1 8.400341685772403 12.502554098345836 2.622616263192547 -2 1 -1
63 1 9.176425298624052 10.943140837564068 5.0376058573506155 0 0 4
46 1 5.303081056673731 13.058615990585006 1.4894079435037717 3 -1 1
115 1 6.833471241049577 12.661326719566654 13.894391577414687 -3 -1 2
44 1 10.776290264627077 14.437813876676252 0.15851384046333136 1 -1 1
3 1 11.860914779577305 14.08083619705244 6.254370555845526 3 -4 1
14 1 15.082751392590833 12.99158117422305 4.878884877908696 0 3 0
106 1 11.083000604896457 13.36039099127553 3.1411404076050498 1 -1 1
43 1 14.74090803809237 10.220918752636184 5.393723073965788 -4 3 1
86 1 14.420456455922436 9.71909926013922 1.6851530377725525 -2 5 2
8 1 9.0201377242846 11.176142020500718 14.873668775221914 1 2 1
36 1 4.564650414084596 3.227546926572356 6.357303032270609 3 -2 1
55 1 0.8968297244567682 4.032501359993661 4.377053151465091 -5 -3 1
81 1 4.255900950785409 0.37464386104311864 7.375196886711314 0 -1 1
19 1 1.2693477476837638 1.7928903360591506 10.677086865408052 0 -2 -3
64 1 7.251657038484092 4.450495401308116 6.529531992097633 -2 -1 -3
120 1 9.152707297307346 2.769172137954263 4.31309122185989 1 1 3
121 1 10.417458648459686 3.2481539477192105 9.425182946806691 -2 3 -1
21 1 5.031022650374242 5.299547771898826 8.72799497189486 -1 2 2
95 1 10.000667195485514 5.621193814308717 6.832968732039184 0 1 -1
83 1 7.114679055181301 1.6552436361615641 8.484605850923064 0 -1 -3
41 1 11.485211627863478 0.6158887106579126 12.236770243547088 -1 3 -3
97 1 1.222249737725178 0.15923261987353263 6.770800877788131 3 -1 -1
27 1 11.087861469556456 2.651993489554518 6.519498410124713 1 6 0
92 1 12.334308591572329 5.685979357404669 8.93068914078354 -1 0 0
124 1 13.3178795263632 0.8521673782169557 4.916888705289368 0 1 0
32 1 15.043779085121274 2.889731871050555 7.828312755538829 1 0 -1
99 1 13.380333736342386 0.6350679491328454 8.435047636481734 -2 -2 0
68 1 2.5157994720555403 5.573155939181137 7.440535524157103 0 -2 0
108 1 2.850212450853484 8.434262563181813 8.565176990056507 0 2 -2
6 1 0.8528844603253938 5.262601996150117 10.166225059293646 -4 -3 -3
79 1 0.849301067559424 10.57809473458976 12.479956261750099 2 -2 2
12 1 15.12307806731353 5.937064152426978 6.298646661430396 0 3 0
118 1 6.144052700851845 10.40504251790358 6.861984089540774 0 -1 2
127 1 8.389078751804778 5.574973613755651 3.4415260752602177 0 0 0
4 1 6.749912871300177 7.1747886239690954 7.283308813471062 -2 -1 -1
84 1 5.09538393111875 6.225061313187111 4.79927396510349 3 -4 -2
72 1 13.647491592154982 8.375641718658025 7.6557400937694045 -1 1 2
73 1 12.346945013989183 7.126737423964646 4.880338232869376 2 1 -1
29 1 11.982132025759817 10.66455347097699 8.146848997170371 3 7 -3
114 1 9.700145216362227 8.70035194704163 7.1799450162130665 1 0 -2
66 1 1.1096897226507594 11.362200770390974 9.102893980558898 0 0 1
128 1 1.751416086535879 14.217581159453287 9.207686261283246 -3 1 3
109 1 3.326805810215939 10.498530936470079 10.581844445334387 -1 1 -3
17 1 4.779702228568115 12.37740772818987 8.827816923691616 0 -2 3
40 1 6.965787004648084 13.238297765782805 6.21501231869685 2 0 3
1 1 7.215254787508608 13.339859684911538 10.11749606604972 2 0 0
18 1 7.839321271561954 10.164746446074604 9.18354315082186 -2 -1 1
54 1 9.90894841449084 0.29585968805622376 8.265737746404463 1 1 -3
90 1 9.23581505815583 14.901310342725449 5.114046599118859 0 -4 1
111 1 13.622208383275213 12.796644608103358 7.575797041259069 -1 -4 0
71 1 11.610532445885118 13.324356363835186 10.714294647829691 4 1 2
67 1 9.562866950167448 12.448254639106157 7.7835294763550396 1 1 0
101 1 14.115168092440188 6.737006050257094 14.858038843961266 -1 -4 1
94 1 2.322119624486377 13.074682372166503 1.456262296003721 -2 3 -1
33 1 3.6920450867355266 2.979060781344264 9.625641790945943 4 3 -1
42 1 5.155668102004182 0.17727355366914502 10.36514518350013 1 2 -3
34 1 1.3754254015448661 5.077743143242864 13.010508695480867 -3 -1 -2
26 1 8.364141988713534 7.312366334523067 9.860428392544609 -2 2 -1
85 1 4.253150698234842 2.3110719797426995 12.679832883220177 0 -1 -3
51 1 7.217942875102924 3.0552113035641053 12.97908046881698 -3 0 2
15 1 13.36463834522201 2.391888281176994 10.682545205544415 1 0 -1
77 1 12.395905308733838 1.988536393939923 15.048513150312417 -3 -2 1
76 1 2.219166595986505 0.28565189103933475 13.863907718884176 -3 0 -1
7 1 11.031928725654371 3.4672084111858874 12.532198064074498 0 1 -1
110 1 0.141579210403734 0.1651797358065428 0.7213657525255265 2 0 2
96 1 1.645380404937952 9.374521999077283 15.00156990576077 3 0 -5
117 1 2.44024130695516 7.301700590496436 11.764234284826882 2 -3 1
69 1 4.103156886769682 7.225380199470026 14.103154068418082 -1 2 -1
98 1 11.252970438112712 8.297260221723162 9.911588988286505 2 -2 1
9 1 4.981616574399737 5.386150901462934 11.511579907576131 -3 -1 -1
125 1 7.875198887426067 4.250038632276738 10.573052345336633 0 -1 0
107 1 5.467039724588346 7.946582642867697 9.823768510507568 -2 1 0
57 1 7.97058711256952 6.032847315716502 13.079026173257137 0 3 -1
48 1 13.546963861566274 5.011804302733449 11.457901090146358 -2 -2 -1
126 1 10.610373904521996 5.861908526269619 11.554061657100855 0 -2 2
47 1 11.402501401218425 7.377329078702162 1.8633293549941674 -1 -3 1
89 1 10.856006221632763 7.751569495032365 13.906120165685703 1 3 -1
52 1 3.5617090055801635 11.569606693055364 14.204580927849584 -2 -4 0
103 1 2.4545906732852525 13.405805137669669 11.927276372202941 4 -1 5
2 1 15.07652115686472 8.44593061692464 10.248994213479305 -5 3 2
38 1 0.24552193405388625 12.616143852070948 14.36897198872598 -1 -1 0
123 1 9.300867086351998 12.913917308235497 12.223039542966102 0 1 -3
50 1 5.116824180332786 15.025427718744409 13.783317972009584 2 -5 -1
49 1 8.166251530190335 1.1383997014104226 10.966954965921287 0 -5 -3
59 1 5.731034354626165 11.009628292102361 11.93293901903182 2 3 -1
87 1 8.543818676672943 9.831872594139242 11.935121341916938 3 -1 -1
62 1 14.120674648612352 14.688150015196879 13.212436902504946 0 1 -4
30 1 12.902980197572202 9.502901231172235 14.261190520763627 0 0 4
31 1 13.00854324330676 10.370723074488817 11.42293248798117 -1 3 5
88 1 14.260654727542473 12.736255290069426 10.805088049053515 -2 1 1
45 1 12.008803928976498 12.387435091301787 13.730028549212943 -2 -2 -6
119 1 14.058829918152368 12.82805638371946 1.8703537552738436 -2 -3 2

Velocities

80 -2.910798833987103 0.4017104040285083 -1.6122671928417895
53 -0.7732700463678779 0.07977404430660198 -2.7191935637126705
78 0.5680622091551911 4.1298398442814035 -0.46975943969632156
61 -1.5307495382735334 3.8182334146866688 -3.418023059762044
58 0.07091338877907472 0.7309756992278387 2.4517720803370047
100 9.097698505113335 -0.05712519875567934 4.733608629740164
105 1.7617892957722328 0.31040995440555846 5.295251166859141
102 5.83355549926363 1.8123983456064152 -1.6453361935263031
24 4.026836212979935 -0.2374791256021999 -7.64218077791579
122 1.614946443551251 0.300190025318066 0.8659685121569619
25 1.257383769907693 0.016099192100301616 -4.0908390317792245
82 -5.479930747737706 -1.5724012121327384 -7.138569215448876
37 0.19319193904275378 -10.52219552950521 1.5424406952716743
11 3.83703786506544 -2.882610177380484 4.25381321241007
112 -1.563469724150285 0.6681995477378537 -1.4629648299170437
113 3.7067040428187426 2.01893745620392 4.157352808601329
35 2.062771790284094 -2.747013737120843 1.4351330569911354
116 -1.2275241907009955 -4.88422571938422 7.559262228246426
93 -0.6677746309605869 -2.9410630229787693 -0.562377243329424
10 -3.6504367970591454 -2.849858657510326 -1.6920636227666281
75 -0.9068667822879788 -0.9589688869636097 -2.3960254273221397
56 -1.3114742436840956 0.2777200245148602 0.2203482880021937
28 3.515577539807269 0.44000041942244694 5.64386700579913
20 4.490105829345418 1.0395710473131359 -2.4605181286186895
91 1.8393440511997141 0.8901097639917149 2.8824245599469456
65 -0.5516225250511416 -2.401609706689647 -2.738031164380435
16 2.7898968620910223 0.9556352853897645 -0.5800032984013396
23 -0.4800033516327467 1.6197205028296169 -1.2771499773165553
60 2.3794875305393983 1.5261743357156285 -0.578634505235004
13 2.4172540729654624 0.08056175536819897 -2.9864598188280134
70 4.146272517565355 1.1936652221836264 -3.4049498963455704
22 3.573264744303792 -2.0433044032697025 -0.9510282626136771
39 -5.145092203143298 0.7272807708360243 3.6514183117125087
104 -2.4655673871877495 -1.6244111013552118 0.6232732828194091
74 -1.6478986020650455 3.0959013000748916 -1.4165943641668666
5 -5.445303659607197 -1.3532963631373287 0.8696397612496176
63 3.5432745810814588 2.356555805011764 -4.426541144195685
46 -0.7056195483065176 2.40105845299751 -4.198079115851831
115 3.039337928555167 5.832083257255018 -0.971122555555648
44 3.3642396289866228 -1.3170987857186085 -1.2541566502485189
3 -2.686457789930664 -3.8100650120157047 -3.52514407640008
14 1.6338945046541513 -0.4001018714185514 6.138969310140111
106 -4.042041593183459 -0.4723953880370516 -0.10147521808279855
43 -0.6796133723573434 1.072943101555946 -1.7858133677818555
86 -2.2462925263088023 -1.043804462196168 -2.065169597959053
8 3.3979986874828523 -3.5066431535370275 1.2019298781472287
36 2.78507103292504 0.8239890487914073 -0.0744389255629516
55 -4.230645008507696 2.6938076191698888 2.1373833113888
81 -0.21191352237432032 -1.2025964169020509 -2.6480358807716073
19 3.321604600589491 2.447464115845879 1.2830684894565758
64 1.3370886526805859 -0.5837400154141152 -4.862417255830813
120 -4.280355422594171 3.6222155918190286 3.9221500698242444
121 2.659830499415928 -4.538228765547814 -1.1576126407191036
21 -0.4278817027847621 5.692039555422174 -3.772605018451449
95 1.7422462296609922 4.573742963368177 0.317022867510975
83 -2.529659431594125 -2.998046528548584 3.0475046076526295
41 5.31365846515156 -1.8951351658536308 0.6915095470314921
97 -1.8347658915993 0.4142933902360615 -4.346339315738569
27 -2.4684963193559124 0.17687467787730263 -2.113295681625068
92 0.9739683103143241 -0.9377666808257356 3.984938939736222
124 -3.6400885450432363 -2.1061313033143847 1.6694935119626866
32 2.690276961838555 4.676404215092929 -3.0506809232733207
99 -2.280137614536436 0.698589558458748 6.60210915789219
68 1.8363202270680241 -2.278438989592795 -1.167840511668492
108 -5.565015459265578 2.063566695300048 6.153442233808741
6 1.043479248772342 0.26882575653997026 -0.469860563017267
79 -2.599365272214162 -2.0812374416047597 -0.25593996772245586
12 0.6103802571267325 3.1330968262959833 3.3504663430457375
118 0.9146245123465454 4.502486608315587 0.13073852629077956
127 2.4210083683992796 0.2544730469040677 0.2427703902401746
4 -3.9243487181403243 -0.6282633778000255 2.43760536054276
84 -0.2959198319195065 -1.2168954935370118 -4.308048949268343
72 -4.459165793360633 -6.218779812715005 -0.12597203000285362
73 4.354768578920938 2.0457756442416084 -0.7204300873311016
29 -0.5998590038439257 -3.0638799595869357 -0.5424057385664358
114 0.8604184176894115 -1.7686831419736733 0.28920715349739845
66 3.137849218195127 -0.6358787433351593 -1.4978021961517045
128 -0.14804198773262775 -2.1820046325122147 0.3144266757840878
109 -1.0123915468282076 2.636101185144715 -0.7183342841205789
17 0.9690836279004933 1.1282818369474936 -1.8288237098023488
40 -2.1765826386632994 1.6702945912900227 -1.3088921098882125
1 -1.7674813921363224 -0.4876011856736125 1.0503074690122745
18 0.04804304027827384 1.144156999990746 0.6508584608835368
54 1.0499653138597294 5.273898165130179 1.2489985008456097
90 1.1992533398582412 2.940635193182166 -4.087687618059172
111 3.803265236921949 -1.5795504288437288 0.6900638496656076
71 -4.960834596147844 1.6282442151501895 -0.1580185555298355
67 -0.5053321779524969 0.3414745161897796 1.262210318939228
101 -1.4517535522385598 5.579304259014596 0.21241339115558472
94 4.431025676810364 -0.4616792557885741 -0.19790598542633198
33 -4.044394262196792 0.9012602843255898 -4.245000159526626
42 -2.406591752044093 1.6357764625406863 0.5173134669846456
34 2.7477631964339837 -3.0728741928014314 1.5079157152045628
26 -3.3068528504223016 -0.17029473541414586 -2.1581839024241822
85 0.5109003108520858 -5.490694842162059 6.036566562977272
51 -5.444800441195312 -1.2232691843605998 -2.644783209121009
15 2.051677298746634 -0.26644371775853604 -1.1282765703139692
77 3.0877714557601745 7.5501123308290055 -2.5931820123432487
76 -2.4787648830997737 2.073903523098547 2.9147778930838957
7 -3.4300677463727753 2.981922481337843 3.006299951352153
110 2.3795933219595855 -1.7785163748765953 -0.762322379722661
96 -0.128314202802668 0.243413676406488 0.6112467570268495
117 -7.651988937583144 -1.2446416682314518 1.6261212823025237
69 1.2815591837858928 1.0842619757006164 6.830750083491831
98 2.5558149251577382 -5.153247508978731 -1.6932539745619424
9 0.12007561248235517 -4.8668809176699765 2.2887140784872995
125 0.7668703309177635 -2.5074678473819634 -1.9310731977332842
107 -3.6428024944956774 -1.7443969991062145 -1.0359557885458617
57 3.707093577084671 -4.9700227736932305 1.024949204613935
48 -6.069186375559817 0.03480694941558462 4.921316728397428
126 -2.0384306330643835 -2.1252893493134306 3.2339993430476666
47 -1.344193139253043 -5.084992086157633 1.4826438887821043
89 -1.4167758032581077 -3.0493522174475753 3.751525760528239
52 -2.384880532028571 -3.2589958635899334 2.430418315116012
103 -2.3729003929636403 -2.425963726884846 -3.4712396418690252
2 -3.1761926425217246 1.709879025087585 5.454084928851277
38 -1.4190584571422558 3.238571619639983 0.182382313173689
123 5.559234620833015 2.981132746662363 -0.5155913329438829
50 -0.5809332791658453 4.702777467099829 6.341921923488144
49 -0.9867813707717541 2.3642895078175465 0.36813061595295754
59 4.1715853439104995 3.8434411718442347 -1.7984392624218875
87 -1.9188858848735715 3.1180441164169146 -7.76708521636035
62 -0.65309494878042 0.32401189989133494 -1.6103746352335495
30 2.596611366540047 3.190367351769175 -3.5145307110862167
31 -1.1240699371640228 -5.571523145055892 -5.126733916414053
88 2.4962019961114255 -0.8503070192149904 -2.640931760950584
45 -1.7658864266964591 -3.10488812965108 2.9434758499755866
119 1.576869118662047 2.246513315863831 0.931099732663775
