clear
# --------------------- VARIABLES-------------------------
variable        NSTEPS          equal 400000
variable        THERMO_FREQ     equal 10
variable        TEMP            equal 330.000000
variable        PRES            equal 10000.000000
variable        TAU_T           equal 0.100000
variable        TAU_P           equal 0.500000
# ---------------------- INITIALIZAITION ------------------
units           metal
boundary        p p p
atom_style      atomic
# --------------------- ATOM DEFINITION ------------------
box             tilt large
read_data       conf.lmp
replicate       1 1 1
change_box      all triclinic
mass            1 16.000000
mass            2 2.000000
# --------------------- FORCE FIELDS ---------------------
pair_style      deepmd benchmark_ti_water/graph.pb
pair_coeff
# --------------------- MD SETTINGS ----------------------
neighbor        1.0 bin
timestep        0.0005
thermo          ${THERMO_FREQ}
compute         allmsd all msd
thermo_style    custom step ke pe etotal enthalpy temp press vol c_allmsd[*]
# dump            1 all custom ${DUMP_FREQ} traj.dump id type x y z
fix             1 all npt temp ${TEMP} ${TEMP} ${TAU_T} iso ${PRES} ${PRES} ${TAU_P}
fix             mzero all momentum 10 linear 1 1 1
# --------------------- INITIALIZE -----------------------
velocity        all create ${TEMP} 7858
velocity        all zero linear
# --------------------- RUN ------------------------------
run             ${NSTEPS}
write_data      out.lmp
